c Converted from gc_100_3
c Source format: '<vertices> <edges>' header followed by integer edge pairs
p edge 100 1500
e 1 3
e 1 8
e 1 11
e 1 13
e 1 22
e 1 23
e 1 25
e 1 26
e 1 32
e 1 35
e 1 37
e 1 41
e 1 42
e 1 43
e 1 44
e 1 45
e 1 46
e 1 60
e 1 64
e 1 67
e 1 68
e 1 69
e 1 76
e 1 87
e 1 95
e 1 98
e 2 3
e 2 4
e 2 8
e 2 13
e 2 16
e 2 17
e 2 22
e 2 23
e 2 24
e 2 29
e 2 30
e 2 33
e 2 34
e 2 38
e 2 41
e 2 42
e 2 45
e 2 47
e 2 51
e 2 57
e 2 60
e 2 64
e 2 66
e 2 69
e 2 70
e 2 72
e 2 75
e 2 76
e 2 77
e 2 80
e 2 87
e 2 95
e 2 96
e 3 4
e 3 5
e 3 8
e 3 10
e 3 15
e 3 19
e 3 20
e 3 21
e 3 22
e 3 25
e 3 26
e 3 27
e 3 28
e 3 33
e 3 36
e 3 43
e 3 50
e 3 52
e 3 53
e 3 55
e 3 57
e 3 58
e 3 60
e 3 69
e 3 71
e 3 72
e 3 73
e 3 76
e 3 77
e 3 88
e 3 91
e 3 95
e 3 97
e 3 100
e 4 5
e 4 7
e 4 8
e 4 10
e 4 17
e 4 19
e 4 25
e 4 26
e 4 36
e 4 38
e 4 44
e 4 49
e 4 55
e 4 61
e 4 62
e 4 64
e 4 65
e 4 67
e 4 70
e 4 72
e 4 73
e 4 74
e 4 77
e 4 80
e 4 82
e 4 83
e 4 86
e 4 87
e 4 89
e 4 90
e 4 91
e 4 96
e 4 98
e 4 99
e 5 9
e 5 16
e 5 19
e 5 21
e 5 24
e 5 27
e 5 30
e 5 32
e 5 33
e 5 34
e 5 36
e 5 37
e 5 44
e 5 45
e 5 46
e 5 49
e 5 54
e 5 56
e 5 59
e 5 64
e 5 65
e 5 67
e 5 70
e 5 85
e 5 87
e 5 94
e 6 8
e 6 13
e 6 15
e 6 16
e 6 28
e 6 30
e 6 34
e 6 35
e 6 37
e 6 38
e 6 40
e 6 44
e 6 45
e 6 48
e 6 50
e 6 52
e 6 56
e 6 58
e 6 59
e 6 62
e 6 64
e 6 65
e 6 66
e 6 69
e 6 70
e 6 72
e 6 80
e 6 82
e 6 83
e 6 84
e 6 86
e 6 95
e 6 97
e 7 11
e 7 12
e 7 13
e 7 14
e 7 15
e 7 18
e 7 25
e 7 26
e 7 38
e 7 43
e 7 44
e 7 46
e 7 47
e 7 48
e 7 53
e 7 56
e 7 63
e 7 64
e 7 70
e 7 71
e 7 75
e 7 79
e 7 88
e 7 92
e 7 93
e 7 94
e 7 96
e 7 100
e 8 9
e 8 20
e 8 30
e 8 35
e 8 38
e 8 40
e 8 41
e 8 44
e 8 45
e 8 49
e 8 51
e 8 54
e 8 55
e 8 57
e 8 62
e 8 64
e 8 67
e 8 69
e 8 70
e 8 71
e 8 73
e 8 77
e 8 79
e 8 82
e 8 100
e 9 10
e 9 11
e 9 13
e 9 15
e 9 20
e 9 22
e 9 24
e 9 30
e 9 32
e 9 42
e 9 47
e 9 49
e 9 50
e 9 56
e 9 67
e 9 73
e 9 76
e 9 78
e 9 79
e 9 91
e 9 94
e 9 97
e 9 100
e 10 12
e 10 13
e 10 17
e 10 21
e 10 26
e 10 28
e 10 31
e 10 34
e 10 37
e 10 38
e 10 39
e 10 41
e 10 48
e 10 49
e 10 51
e 10 52
e 10 53
e 10 55
e 10 57
e 10 60
e 10 63
e 10 69
e 10 73
e 10 76
e 10 90
e 10 91
e 10 92
e 10 96
e 11 14
e 11 16
e 11 17
e 11 18
e 11 19
e 11 20
e 11 22
e 11 24
e 11 26
e 11 33
e 11 34
e 11 35
e 11 39
e 11 41
e 11 46
e 11 52
e 11 59
e 11 61
e 11 62
e 11 63
e 11 69
e 11 72
e 11 79
e 11 81
e 11 82
e 11 86
e 11 91
e 11 92
e 11 93
e 12 14
e 12 21
e 12 26
e 12 28
e 12 30
e 12 33
e 12 35
e 12 37
e 12 39
e 12 42
e 12 48
e 12 50
e 12 52
e 12 53
e 12 54
e 12 55
e 12 56
e 12 59
e 12 60
e 12 64
e 12 67
e 12 71
e 12 81
e 12 84
e 12 88
e 12 91
e 12 92
e 12 93
e 12 98
e 12 99
e 13 14
e 13 22
e 13 26
e 13 28
e 13 29
e 13 34
e 13 36
e 13 37
e 13 38
e 13 43
e 13 45
e 13 49
e 13 55
e 13 56
e 13 57
e 13 58
e 13 60
e 13 61
e 13 69
e 13 72
e 13 75
e 13 86
e 13 90
e 13 91
e 13 93
e 13 99
e 13 100
e 14 15
e 14 18
e 14 24
e 14 30
e 14 31
e 14 33
e 14 34
e 14 51
e 14 55
e 14 57
e 14 60
e 14 63
e 14 64
e 14 67
e 14 69
e 14 71
e 14 73
e 14 74
e 14 76
e 14 78
e 14 84
e 14 85
e 14 92
e 14 97
e 14 98
e 14 99
e 15 16
e 15 34
e 15 39
e 15 47
e 15 57
e 15 67
e 15 69
e 15 74
e 15 77
e 15 78
e 15 82
e 15 85
e 15 89
e 15 91
e 15 93
e 15 94
e 15 97
e 16 18
e 16 19
e 16 22
e 16 23
e 16 35
e 16 36
e 16 44
e 16 47
e 16 49
e 16 53
e 16 55
e 16 59
e 16 61
e 16 68
e 16 70
e 16 74
e 16 78
e 16 80
e 16 81
e 16 84
e 16 85
e 16 86
e 16 93
e 17 18
e 17 20
e 17 21
e 17 23
e 17 26
e 17 27
e 17 28
e 17 33
e 17 34
e 17 37
e 17 44
e 17 47
e 17 48
e 17 54
e 17 57
e 17 61
e 17 67
e 17 74
e 17 81
e 17 82
e 17 84
e 17 85
e 17 89
e 17 91
e 17 92
e 17 94
e 17 96
e 17 97
e 17 99
e 17 100
e 18 19
e 18 24
e 18 28
e 18 30
e 18 31
e 18 32
e 18 47
e 18 48
e 18 50
e 18 51
e 18 52
e 18 53
e 18 55
e 18 56
e 18 68
e 18 74
e 18 77
e 18 82
e 18 100
e 19 20
e 19 25
e 19 26
e 19 27
e 19 34
e 19 35
e 19 37
e 19 38
e 19 39
e 19 41
e 19 44
e 19 51
e 19 52
e 19 53
e 19 55
e 19 57
e 19 60
e 19 63
e 19 68
e 19 71
e 19 73
e 19 74
e 19 75
e 19 77
e 19 81
e 19 82
e 19 89
e 19 93
e 19 95
e 19 96
e 19 97
e 19 99
e 19 100
e 20 23
e 20 26
e 20 29
e 20 35
e 20 37
e 20 40
e 20 43
e 20 45
e 20 51
e 20 54
e 20 56
e 20 57
e 20 58
e 20 62
e 20 65
e 20 66
e 20 71
e 20 73
e 20 76
e 20 78
e 20 80
e 20 84
e 20 86
e 20 88
e 20 89
e 20 93
e 20 94
e 20 98
e 20 99
e 21 22
e 21 23
e 21 24
e 21 27
e 21 32
e 21 36
e 21 39
e 21 43
e 21 55
e 21 56
e 21 61
e 21 62
e 21 64
e 21 79
e 21 80
e 21 81
e 21 84
e 21 85
e 21 86
e 21 88
e 21 89
e 22 23
e 22 26
e 22 27
e 22 36
e 22 40
e 22 44
e 22 50
e 22 51
e 22 53
e 22 55
e 22 60
e 22 67
e 22 68
e 22 73
e 22 74
e 22 75
e 22 78
e 22 80
e 22 81
e 22 87
e 22 90
e 22 95
e 23 24
e 23 25
e 23 27
e 23 31
e 23 35
e 23 36
e 23 37
e 23 41
e 23 43
e 23 48
e 23 49
e 23 52
e 23 53
e 23 54
e 23 59
e 23 60
e 23 64
e 23 66
e 23 69
e 23 77
e 23 86
e 23 98
e 23 99
e 23 100
e 24 27
e 24 28
e 24 33
e 24 35
e 24 36
e 24 42
e 24 43
e 24 45
e 24 49
e 24 50
e 24 54
e 24 56
e 24 65
e 24 67
e 24 73
e 24 75
e 24 79
e 24 81
e 24 82
e 24 84
e 24 88
e 24 94
e 24 97
e 24 98
e 24 100
e 25 27
e 25 28
e 25 31
e 25 32
e 25 34
e 25 43
e 25 46
e 25 47
e 25 48
e 25 50
e 25 52
e 25 56
e 25 65
e 25 66
e 25 69
e 25 70
e 25 76
e 25 83
e 25 85
e 25 87
e 25 88
e 25 89
e 25 91
e 25 95
e 26 28
e 26 41
e 26 44
e 26 45
e 26 52
e 26 54
e 26 59
e 26 62
e 26 65
e 26 66
e 26 67
e 26 69
e 26 70
e 26 72
e 26 73
e 26 75
e 26 76
e 26 78
e 26 81
e 26 83
e 26 84
e 26 87
e 26 88
e 26 90
e 26 94
e 26 96
e 26 99
e 27 30
e 27 32
e 27 33
e 27 39
e 27 42
e 27 44
e 27 47
e 27 49
e 27 50
e 27 51
e 27 53
e 27 54
e 27 55
e 27 56
e 27 57
e 27 58
e 27 59
e 27 63
e 27 65
e 27 69
e 27 71
e 27 74
e 27 79
e 27 81
e 27 82
e 27 85
e 27 86
e 27 91
e 27 92
e 27 95
e 27 97
e 27 100
e 28 35
e 28 39
e 28 40
e 28 41
e 28 45
e 28 50
e 28 52
e 28 59
e 28 61
e 28 63
e 28 64
e 28 65
e 28 70
e 28 71
e 28 80
e 28 89
e 28 94
e 28 99
e 29 33
e 29 36
e 29 41
e 29 45
e 29 46
e 29 50
e 29 52
e 29 56
e 29 57
e 29 58
e 29 59
e 29 66
e 29 68
e 29 70
e 29 72
e 29 78
e 29 81
e 29 87
e 29 92
e 29 94
e 29 98
e 30 33
e 30 35
e 30 47
e 30 49
e 30 53
e 30 55
e 30 58
e 30 62
e 30 70
e 30 74
e 30 75
e 30 78
e 30 80
e 30 83
e 30 85
e 30 86
e 30 91
e 30 92
e 30 94
e 31 36
e 31 52
e 31 53
e 31 56
e 31 60
e 31 61
e 31 64
e 31 70
e 31 72
e 31 74
e 31 79
e 31 81
e 31 84
e 32 34
e 32 36
e 32 38
e 32 41
e 32 42
e 32 46
e 32 47
e 32 49
e 32 53
e 32 55
e 32 57
e 32 59
e 32 63
e 32 66
e 32 67
e 32 71
e 32 74
e 32 76
e 32 85
e 32 86
e 32 89
e 32 92
e 32 96
e 33 34
e 33 36
e 33 40
e 33 41
e 33 47
e 33 51
e 33 53
e 33 57
e 33 65
e 33 67
e 33 71
e 33 75
e 33 77
e 33 81
e 33 84
e 33 92
e 33 93
e 33 94
e 33 98
e 34 37
e 34 39
e 34 42
e 34 43
e 34 44
e 34 47
e 34 48
e 34 53
e 34 54
e 34 62
e 34 64
e 34 65
e 34 69
e 34 72
e 34 78
e 34 80
e 34 82
e 34 84
e 34 87
e 34 90
e 34 91
e 34 92
e 34 93
e 34 94
e 34 97
e 35 39
e 35 42
e 35 43
e 35 49
e 35 52
e 35 53
e 35 62
e 35 66
e 35 68
e 35 76
e 35 83
e 35 85
e 35 86
e 35 87
e 35 92
e 35 93
e 35 97
e 36 37
e 36 38
e 36 40
e 36 54
e 36 55
e 36 56
e 36 58
e 36 61
e 36 67
e 36 68
e 36 69
e 36 71
e 36 75
e 36 76
e 36 78
e 36 80
e 36 82
e 36 88
e 36 90
e 36 91
e 36 95
e 36 96
e 36 100
e 37 40
e 37 58
e 37 64
e 37 65
e 37 68
e 37 69
e 37 73
e 37 76
e 37 84
e 37 85
e 37 88
e 37 90
e 37 93
e 37 94
e 37 97
e 38 45
e 38 50
e 38 54
e 38 59
e 38 63
e 38 64
e 38 67
e 38 73
e 38 74
e 38 75
e 38 78
e 38 79
e 38 82
e 38 83
e 38 84
e 38 94
e 38 97
e 39 42
e 39 44
e 39 45
e 39 46
e 39 47
e 39 56
e 39 61
e 39 62
e 39 68
e 39 73
e 39 74
e 39 77
e 39 80
e 39 82
e 39 88
e 39 92
e 39 93
e 39 98
e 39 99
e 39 100
e 40 43
e 40 47
e 40 51
e 40 55
e 40 60
e 40 62
e 40 63
e 40 64
e 40 65
e 40 69
e 40 73
e 40 77
e 40 79
e 40 85
e 40 87
e 40 88
e 40 91
e 40 93
e 40 94
e 40 98
e 40 99
e 40 100
e 41 42
e 41 51
e 41 54
e 41 55
e 41 56
e 41 59
e 41 60
e 41 63
e 41 66
e 41 67
e 41 68
e 41 70
e 41 71
e 41 90
e 41 93
e 41 94
e 41 99
e 42 43
e 42 45
e 42 46
e 42 56
e 42 57
e 42 59
e 42 60
e 42 61
e 42 62
e 42 67
e 42 73
e 42 74
e 42 77
e 42 79
e 42 81
e 42 83
e 42 86
e 42 99
e 43 44
e 43 46
e 43 51
e 43 52
e 43 56
e 43 60
e 43 61
e 43 63
e 43 64
e 43 69
e 43 70
e 43 71
e 43 73
e 43 75
e 43 79
e 43 80
e 43 81
e 43 88
e 43 96
e 44 46
e 44 47
e 44 51
e 44 61
e 44 63
e 44 65
e 44 66
e 44 71
e 44 74
e 44 76
e 44 78
e 44 82
e 44 83
e 44 84
e 44 86
e 44 87
e 44 99
e 45 47
e 45 49
e 45 50
e 45 53
e 45 58
e 45 59
e 45 67
e 45 70
e 45 75
e 45 76
e 45 79
e 45 81
e 45 84
e 45 89
e 45 95
e 45 98
e 45 100
e 46 48
e 46 49
e 46 53
e 46 55
e 46 63
e 46 67
e 46 71
e 46 73
e 46 76
e 46 78
e 46 94
e 46 95
e 46 100
e 47 52
e 47 56
e 47 57
e 47 60
e 47 64
e 47 65
e 47 67
e 47 71
e 47 76
e 47 78
e 47 79
e 47 81
e 47 82
e 47 86
e 47 87
e 47 88
e 47 90
e 48 49
e 48 55
e 48 56
e 48 59
e 48 68
e 48 77
e 48 78
e 48 84
e 48 85
e 48 88
e 48 90
e 49 50
e 49 54
e 49 56
e 49 57
e 49 71
e 49 72
e 49 74
e 49 75
e 49 81
e 49 82
e 49 83
e 49 85
e 49 94
e 49 95
e 50 52
e 50 53
e 50 60
e 50 62
e 50 65
e 50 68
e 50 73
e 50 74
e 50 83
e 50 89
e 50 91
e 50 94
e 51 53
e 51 55
e 51 56
e 51 58
e 51 60
e 51 62
e 51 69
e 51 72
e 51 75
e 51 76
e 51 79
e 51 81
e 51 85
e 51 87
e 51 89
e 51 91
e 51 93
e 51 98
e 51 100
e 52 55
e 52 57
e 52 63
e 52 65
e 52 68
e 52 74
e 52 79
e 52 82
e 52 83
e 52 86
e 52 93
e 52 94
e 52 96
e 52 99
e 52 100
e 53 57
e 53 62
e 53 73
e 53 76
e 53 77
e 53 83
e 53 85
e 53 91
e 53 92
e 53 93
e 53 95
e 53 96
e 53 98
e 53 99
e 54 62
e 54 65
e 54 66
e 54 67
e 54 70
e 54 74
e 54 75
e 54 77
e 54 81
e 54 82
e 54 85
e 54 88
e 54 90
e 54 91
e 54 93
e 54 96
e 54 99
e 55 56
e 55 64
e 55 65
e 55 66
e 55 73
e 55 87
e 55 89
e 55 91
e 55 93
e 55 94
e 55 98
e 56 58
e 56 59
e 56 66
e 56 73
e 56 75
e 56 76
e 56 78
e 56 79
e 56 82
e 56 83
e 56 86
e 56 89
e 56 93
e 56 95
e 57 61
e 57 62
e 57 63
e 57 67
e 57 71
e 57 74
e 57 75
e 57 76
e 57 80
e 57 81
e 57 87
e 57 91
e 57 93
e 57 95
e 57 98
e 57 99
e 57 100
e 58 61
e 58 62
e 58 64
e 58 67
e 58 76
e 58 83
e 58 94
e 58 96
e 59 62
e 59 63
e 59 70
e 59 71
e 59 73
e 59 74
e 59 75
e 59 76
e 59 78
e 59 86
e 59 91
e 59 93
e 60 61
e 60 64
e 60 69
e 60 72
e 60 75
e 60 77
e 60 80
e 60 86
e 60 93
e 60 94
e 60 95
e 60 98
e 61 63
e 61 74
e 61 75
e 61 78
e 61 81
e 61 83
e 61 90
e 61 97
e 61 99
e 62 64
e 62 75
e 62 78
e 62 82
e 62 91
e 62 95
e 62 96
e 62 98
e 63 67
e 63 70
e 63 71
e 63 75
e 63 85
e 63 93
e 64 66
e 64 69
e 64 81
e 64 82
e 64 88
e 64 90
e 64 91
e 64 95
e 65 67
e 65 72
e 65 73
e 65 74
e 65 80
e 65 81
e 65 86
e 65 87
e 65 89
e 65 90
e 65 98
e 66 68
e 66 69
e 66 71
e 66 73
e 66 74
e 66 77
e 66 78
e 66 79
e 66 81
e 66 83
e 66 85
e 66 87
e 66 93
e 66 98
e 67 68
e 67 70
e 67 75
e 67 78
e 67 80
e 67 82
e 67 87
e 67 88
e 67 93
e 67 96
e 68 69
e 68 70
e 68 72
e 68 74
e 68 75
e 68 79
e 68 80
e 68 94
e 68 95
e 68 97
e 69 71
e 69 74
e 69 77
e 69 82
e 69 84
e 69 88
e 69 90
e 69 95
e 69 96
e 70 72
e 70 75
e 70 76
e 70 92
e 70 94
e 70 100
e 71 73
e 71 75
e 71 78
e 71 79
e 71 82
e 71 83
e 71 90
e 71 95
e 71 100
e 72 73
e 72 75
e 72 83
e 72 86
e 72 87
e 72 92
e 72 96
e 72 97
e 72 98
e 72 99
e 73 75
e 73 77
e 73 87
e 73 88
e 73 93
e 73 94
e 73 95
e 73 97
e 73 98
e 74 78
e 74 79
e 74 84
e 74 88
e 74 90
e 74 95
e 74 96
e 74 98
e 74 100
e 75 78
e 75 81
e 75 82
e 75 88
e 75 94
e 75 99
e 76 81
e 76 82
e 76 84
e 76 86
e 76 90
e 76 92
e 76 95
e 76 96
e 76 97
e 77 78
e 77 82
e 77 83
e 77 84
e 77 85
e 77 91
e 77 93
e 77 96
e 78 87
e 78 88
e 78 92
e 78 93
e 78 95
e 78 96
e 79 81
e 79 83
e 79 89
e 79 90
e 79 94
e 80 84
e 80 86
e 80 87
e 80 89
e 80 92
e 81 82
e 81 94
e 81 96
e 82 83
e 82 86
e 82 88
e 82 92
e 82 96
e 82 98
e 83 91
e 83 92
e 83 95
e 83 98
e 84 85
e 84 91
e 84 99
e 85 88
e 85 91
e 85 93
e 85 98
e 85 99
e 85 100
e 86 88
e 86 89
e 86 93
e 86 95
e 86 96
e 86 97
e 86 99
e 86 100
e 87 88
e 87 90
e 87 93
e 87 97
e 87 98
e 88 90
e 88 93
e 88 94
e 88 97
e 88 98
e 89 91
e 89 94
e 89 96
e 89 99
e 90 94
e 90 98
e 91 93
e 91 96
e 91 99
e 91 100
e 92 93
e 92 94
e 92 95
e 93 95
e 94 97
e 94 98
e 95 97
e 96 100
e 99 100
