c Converted from gc_1000_1
c Source format: '<vertices> <edges>' header followed by integer edge pairs
p edge 1000 50287
e 1 6
e 1 9
e 1 14
e 1 25
e 1 32
e 1 33
e 1 38
e 1 41
e 1 49
e 1 51
e 1 61
e 1 68
e 1 77
e 1 80
e 1 123
e 1 132
e 1 139
e 1 150
e 1 151
e 1 155
e 1 156
e 1 162
e 1 180
e 1 223
e 1 234
e 1 242
e 1 246
e 1 264
e 1 271
e 1 273
e 1 274
e 1 288
e 1 290
e 1 306
e 1 316
e 1 322
e 1 324
e 1 339
e 1 356
e 1 373
e 1 380
e 1 392
e 1 400
e 1 409
e 1 410
e 1 415
e 1 423
e 1 433
e 1 443
e 1 446
e 1 448
e 1 459
e 1 461
e 1 489
e 1 491
e 1 502
e 1 504
e 1 507
e 1 509
e 1 514
e 1 517
e 1 521
e 1 525
e 1 538
e 1 543
e 1 566
e 1 569
e 1 583
e 1 598
e 1 617
e 1 631
e 1 659
e 1 663
e 1 670
e 1 707
e 1 716
e 1 737
e 1 740
e 1 752
e 1 757
e 1 772
e 1 783
e 1 795
e 1 799
e 1 815
e 1 818
e 1 830
e 1 832
e 1 838
e 1 843
e 1 846
e 1 847
e 1 854
e 1 858
e 1 860
e 1 888
e 1 897
e 1 905
e 1 912
e 1 925
e 1 932
e 1 951
e 1 961
e 1 963
e 1 967
e 1 968
e 1 987
e 1 992
e 1 997
e 2 8
e 2 12
e 2 17
e 2 29
e 2 31
e 2 36
e 2 40
e 2 45
e 2 49
e 2 54
e 2 59
e 2 76
e 2 94
e 2 96
e 2 98
e 2 106
e 2 117
e 2 119
e 2 122
e 2 134
e 2 143
e 2 145
e 2 153
e 2 155
e 2 162
e 2 178
e 2 190
e 2 199
e 2 201
e 2 223
e 2 229
e 2 230
e 2 260
e 2 272
e 2 275
e 2 277
e 2 279
e 2 282
e 2 290
e 2 302
e 2 310
e 2 313
e 2 349
e 2 378
e 2 386
e 2 388
e 2 399
e 2 410
e 2 411
e 2 423
e 2 429
e 2 440
e 2 445
e 2 448
e 2 453
e 2 461
e 2 479
e 2 482
e 2 495
e 2 510
e 2 516
e 2 524
e 2 550
e 2 561
e 2 562
e 2 572
e 2 587
e 2 590
e 2 600
e 2 602
e 2 607
e 2 635
e 2 637
e 2 642
e 2 649
e 2 664
e 2 674
e 2 675
e 2 676
e 2 680
e 2 684
e 2 686
e 2 688
e 2 691
e 2 699
e 2 703
e 2 721
e 2 743
e 2 746
e 2 757
e 2 760
e 2 769
e 2 780
e 2 788
e 2 791
e 2 795
e 2 799
e 2 800
e 2 812
e 2 814
e 2 846
e 2 865
e 2 870
e 2 884
e 2 890
e 2 891
e 2 892
e 2 895
e 2 900
e 2 904
e 2 907
e 2 920
e 2 938
e 2 947
e 2 949
e 2 961
e 2 985
e 3 4
e 3 16
e 3 17
e 3 28
e 3 53
e 3 74
e 3 90
e 3 93
e 3 108
e 3 116
e 3 122
e 3 124
e 3 128
e 3 136
e 3 142
e 3 145
e 3 153
e 3 155
e 3 156
e 3 157
e 3 160
e 3 163
e 3 169
e 3 170
e 3 174
e 3 182
e 3 183
e 3 185
e 3 188
e 3 202
e 3 205
e 3 208
e 3 216
e 3 249
e 3 264
e 3 275
e 3 286
e 3 293
e 3 306
e 3 308
e 3 312
e 3 356
e 3 362
e 3 363
e 3 367
e 3 384
e 3 388
e 3 404
e 3 423
e 3 427
e 3 430
e 3 466
e 3 481
e 3 487
e 3 489
e 3 510
e 3 513
e 3 515
e 3 519
e 3 561
e 3 567
e 3 571
e 3 602
e 3 615
e 3 625
e 3 650
e 3 653
e 3 663
e 3 671
e 3 680
e 3 682
e 3 693
e 3 696
e 3 701
e 3 724
e 3 725
e 3 743
e 3 777
e 3 781
e 3 789
e 3 792
e 3 816
e 3 832
e 3 835
e 3 868
e 3 872
e 3 874
e 3 878
e 3 880
e 3 890
e 3 891
e 3 959
e 3 963
e 3 969
e 3 993
e 4 12
e 4 24
e 4 47
e 4 69
e 4 86
e 4 102
e 4 106
e 4 118
e 4 142
e 4 153
e 4 159
e 4 160
e 4 167
e 4 175
e 4 176
e 4 193
e 4 229
e 4 251
e 4 256
e 4 258
e 4 267
e 4 268
e 4 269
e 4 271
e 4 275
e 4 277
e 4 284
e 4 302
e 4 310
e 4 319
e 4 322
e 4 329
e 4 330
e 4 334
e 4 342
e 4 352
e 4 357
e 4 363
e 4 370
e 4 372
e 4 377
e 4 380
e 4 391
e 4 393
e 4 398
e 4 400
e 4 408
e 4 458
e 4 474
e 4 475
e 4 489
e 4 494
e 4 519
e 4 527
e 4 540
e 4 549
e 4 576
e 4 582
e 4 584
e 4 590
e 4 616
e 4 623
e 4 627
e 4 628
e 4 629
e 4 633
e 4 639
e 4 640
e 4 644
e 4 646
e 4 650
e 4 651
e 4 652
e 4 654
e 4 670
e 4 674
e 4 690
e 4 697
e 4 700
e 4 731
e 4 740
e 4 752
e 4 755
e 4 758
e 4 762
e 4 771
e 4 782
e 4 797
e 4 798
e 4 808
e 4 820
e 4 833
e 4 849
e 4 852
e 4 860
e 4 868
e 4 869
e 4 889
e 4 935
e 4 936
e 4 944
e 4 951
e 4 976
e 4 985
e 4 1000
e 5 8
e 5 28
e 5 40
e 5 43
e 5 48
e 5 52
e 5 55
e 5 61
e 5 72
e 5 81
e 5 88
e 5 92
e 5 97
e 5 99
e 5 110
e 5 130
e 5 131
e 5 138
e 5 140
e 5 156
e 5 164
e 5 167
e 5 169
e 5 180
e 5 188
e 5 209
e 5 224
e 5 225
e 5 229
e 5 239
e 5 251
e 5 275
e 5 276
e 5 279
e 5 285
e 5 290
e 5 303
e 5 333
e 5 353
e 5 358
e 5 362
e 5 372
e 5 383
e 5 394
e 5 397
e 5 400
e 5 408
e 5 421
e 5 422
e 5 423
e 5 431
e 5 439
e 5 445
e 5 449
e 5 452
e 5 479
e 5 490
e 5 491
e 5 496
e 5 498
e 5 499
e 5 500
e 5 517
e 5 520
e 5 530
e 5 536
e 5 540
e 5 545
e 5 551
e 5 554
e 5 555
e 5 563
e 5 575
e 5 584
e 5 588
e 5 590
e 5 603
e 5 616
e 5 621
e 5 627
e 5 646
e 5 649
e 5 651
e 5 652
e 5 670
e 5 675
e 5 686
e 5 697
e 5 699
e 5 708
e 5 732
e 5 769
e 5 775
e 5 781
e 5 792
e 5 793
e 5 799
e 5 801
e 5 807
e 5 828
e 5 845
e 5 860
e 5 891
e 5 899
e 5 901
e 5 915
e 5 955
e 5 965
e 5 984
e 5 992
e 6 22
e 6 45
e 6 51
e 6 61
e 6 66
e 6 103
e 6 104
e 6 113
e 6 115
e 6 128
e 6 145
e 6 146
e 6 174
e 6 175
e 6 177
e 6 215
e 6 218
e 6 219
e 6 223
e 6 232
e 6 240
e 6 267
e 6 290
e 6 301
e 6 307
e 6 326
e 6 344
e 6 376
e 6 378
e 6 388
e 6 391
e 6 425
e 6 448
e 6 451
e 6 458
e 6 506
e 6 516
e 6 526
e 6 528
e 6 534
e 6 535
e 6 545
e 6 550
e 6 551
e 6 560
e 6 571
e 6 574
e 6 583
e 6 591
e 6 610
e 6 614
e 6 623
e 6 633
e 6 662
e 6 667
e 6 686
e 6 687
e 6 691
e 6 692
e 6 705
e 6 720
e 6 743
e 6 749
e 6 751
e 6 756
e 6 757
e 6 759
e 6 779
e 6 780
e 6 783
e 6 798
e 6 800
e 6 808
e 6 809
e 6 833
e 6 848
e 6 860
e 6 865
e 6 867
e 6 903
e 6 908
e 6 923
e 6 952
e 6 955
e 6 956
e 6 957
e 6 986
e 6 994
e 7 23
e 7 27
e 7 83
e 7 84
e 7 90
e 7 92
e 7 93
e 7 94
e 7 95
e 7 102
e 7 105
e 7 111
e 7 117
e 7 119
e 7 134
e 7 145
e 7 148
e 7 154
e 7 159
e 7 168
e 7 170
e 7 175
e 7 178
e 7 189
e 7 191
e 7 196
e 7 215
e 7 228
e 7 239
e 7 243
e 7 247
e 7 249
e 7 251
e 7 257
e 7 275
e 7 277
e 7 284
e 7 292
e 7 308
e 7 335
e 7 359
e 7 362
e 7 381
e 7 429
e 7 435
e 7 443
e 7 453
e 7 467
e 7 474
e 7 478
e 7 484
e 7 485
e 7 486
e 7 488
e 7 493
e 7 495
e 7 509
e 7 524
e 7 525
e 7 538
e 7 559
e 7 570
e 7 571
e 7 572
e 7 596
e 7 600
e 7 616
e 7 617
e 7 619
e 7 635
e 7 645
e 7 652
e 7 664
e 7 683
e 7 689
e 7 695
e 7 719
e 7 723
e 7 733
e 7 740
e 7 758
e 7 787
e 7 792
e 7 799
e 7 801
e 7 832
e 7 838
e 7 870
e 7 880
e 7 891
e 7 921
e 7 951
e 7 962
e 7 969
e 7 973
e 7 985
e 7 988
e 8 23
e 8 37
e 8 39
e 8 49
e 8 53
e 8 68
e 8 76
e 8 86
e 8 88
e 8 89
e 8 93
e 8 100
e 8 106
e 8 110
e 8 116
e 8 118
e 8 127
e 8 131
e 8 142
e 8 148
e 8 149
e 8 152
e 8 163
e 8 186
e 8 188
e 8 227
e 8 244
e 8 254
e 8 255
e 8 263
e 8 266
e 8 283
e 8 286
e 8 299
e 8 303
e 8 314
e 8 317
e 8 321
e 8 355
e 8 381
e 8 388
e 8 433
e 8 452
e 8 457
e 8 497
e 8 501
e 8 507
e 8 508
e 8 509
e 8 512
e 8 515
e 8 518
e 8 526
e 8 540
e 8 546
e 8 554
e 8 562
e 8 577
e 8 578
e 8 583
e 8 588
e 8 599
e 8 616
e 8 634
e 8 639
e 8 662
e 8 685
e 8 696
e 8 698
e 8 703
e 8 719
e 8 720
e 8 751
e 8 771
e 8 788
e 8 794
e 8 795
e 8 805
e 8 810
e 8 816
e 8 817
e 8 827
e 8 832
e 8 836
e 8 839
e 8 855
e 8 857
e 8 873
e 8 899
e 8 902
e 8 912
e 8 925
e 8 926
e 8 928
e 8 952
e 8 959
e 8 972
e 8 973
e 8 979
e 8 985
e 8 988
e 8 993
e 9 23
e 9 27
e 9 32
e 9 57
e 9 63
e 9 66
e 9 70
e 9 72
e 9 74
e 9 87
e 9 94
e 9 105
e 9 112
e 9 113
e 9 126
e 9 129
e 9 150
e 9 152
e 9 153
e 9 164
e 9 167
e 9 168
e 9 185
e 9 191
e 9 193
e 9 208
e 9 225
e 9 226
e 9 247
e 9 250
e 9 254
e 9 266
e 9 273
e 9 306
e 9 310
e 9 331
e 9 341
e 9 345
e 9 351
e 9 384
e 9 387
e 9 396
e 9 398
e 9 403
e 9 407
e 9 411
e 9 414
e 9 425
e 9 426
e 9 458
e 9 472
e 9 495
e 9 509
e 9 520
e 9 523
e 9 528
e 9 547
e 9 550
e 9 565
e 9 566
e 9 569
e 9 577
e 9 590
e 9 591
e 9 592
e 9 600
e 9 623
e 9 632
e 9 641
e 9 651
e 9 705
e 9 710
e 9 711
e 9 728
e 9 738
e 9 740
e 9 749
e 9 750
e 9 751
e 9 762
e 9 786
e 9 797
e 9 800
e 9 801
e 9 803
e 9 824
e 9 826
e 9 844
e 9 850
e 9 872
e 9 873
e 9 902
e 9 904
e 9 906
e 9 908
e 9 919
e 9 926
e 9 935
e 9 936
e 9 941
e 9 947
e 9 949
e 9 957
e 9 959
e 9 973
e 9 978
e 10 12
e 10 16
e 10 28
e 10 39
e 10 55
e 10 85
e 10 86
e 10 92
e 10 114
e 10 118
e 10 123
e 10 126
e 10 131
e 10 134
e 10 138
e 10 165
e 10 175
e 10 182
e 10 192
e 10 198
e 10 202
e 10 205
e 10 214
e 10 215
e 10 262
e 10 280
e 10 283
e 10 289
e 10 294
e 10 296
e 10 307
e 10 315
e 10 320
e 10 340
e 10 345
e 10 356
e 10 362
e 10 376
e 10 377
e 10 392
e 10 407
e 10 413
e 10 431
e 10 434
e 10 444
e 10 451
e 10 458
e 10 489
e 10 539
e 10 555
e 10 559
e 10 563
e 10 567
e 10 581
e 10 586
e 10 599
e 10 605
e 10 621
e 10 623
e 10 645
e 10 647
e 10 660
e 10 664
e 10 665
e 10 687
e 10 693
e 10 715
e 10 750
e 10 770
e 10 794
e 10 807
e 10 809
e 10 828
e 10 834
e 10 842
e 10 843
e 10 845
e 10 847
e 10 848
e 10 849
e 10 853
e 10 870
e 10 878
e 10 880
e 10 885
e 10 897
e 10 899
e 10 900
e 10 914
e 10 924
e 10 932
e 10 938
e 10 940
e 10 955
e 10 979
e 11 13
e 11 17
e 11 22
e 11 75
e 11 80
e 11 81
e 11 114
e 11 120
e 11 139
e 11 147
e 11 148
e 11 149
e 11 165
e 11 167
e 11 172
e 11 180
e 11 187
e 11 190
e 11 196
e 11 197
e 11 222
e 11 226
e 11 240
e 11 271
e 11 281
e 11 282
e 11 307
e 11 308
e 11 312
e 11 325
e 11 331
e 11 333
e 11 336
e 11 337
e 11 356
e 11 360
e 11 382
e 11 390
e 11 405
e 11 412
e 11 413
e 11 437
e 11 444
e 11 465
e 11 466
e 11 474
e 11 476
e 11 485
e 11 486
e 11 495
e 11 501
e 11 530
e 11 533
e 11 546
e 11 559
e 11 563
e 11 566
e 11 574
e 11 588
e 11 589
e 11 592
e 11 597
e 11 613
e 11 617
e 11 622
e 11 627
e 11 637
e 11 670
e 11 678
e 11 686
e 11 699
e 11 711
e 11 727
e 11 748
e 11 749
e 11 754
e 11 772
e 11 775
e 11 776
e 11 784
e 11 789
e 11 795
e 11 806
e 11 814
e 11 826
e 11 831
e 11 834
e 11 835
e 11 849
e 11 866
e 11 870
e 11 916
e 11 928
e 11 931
e 11 942
e 11 947
e 11 951
e 11 959
e 11 970
e 11 974
e 11 985
e 11 990
e 11 992
e 11 993
e 12 13
e 12 31
e 12 37
e 12 39
e 12 42
e 12 56
e 12 80
e 12 84
e 12 85
e 12 95
e 12 101
e 12 113
e 12 123
e 12 144
e 12 146
e 12 149
e 12 151
e 12 165
e 12 173
e 12 198
e 12 207
e 12 221
e 12 229
e 12 235
e 12 236
e 12 238
e 12 315
e 12 326
e 12 333
e 12 340
e 12 359
e 12 362
e 12 369
e 12 374
e 12 387
e 12 393
e 12 401
e 12 414
e 12 426
e 12 430
e 12 439
e 12 451
e 12 454
e 12 461
e 12 477
e 12 498
e 12 504
e 12 513
e 12 523
e 12 537
e 12 543
e 12 546
e 12 584
e 12 605
e 12 610
e 12 613
e 12 622
e 12 623
e 12 646
e 12 650
e 12 674
e 12 681
e 12 690
e 12 692
e 12 703
e 12 720
e 12 722
e 12 734
e 12 749
e 12 768
e 12 776
e 12 778
e 12 822
e 12 826
e 12 846
e 12 851
e 12 856
e 12 912
e 12 913
e 12 915
e 12 918
e 12 923
e 12 926
e 12 928
e 12 931
e 12 943
e 12 961
e 12 969
e 12 974
e 12 980
e 12 999
e 13 15
e 13 23
e 13 25
e 13 40
e 13 45
e 13 50
e 13 57
e 13 68
e 13 74
e 13 105
e 13 110
e 13 119
e 13 125
e 13 137
e 13 147
e 13 150
e 13 154
e 13 160
e 13 173
e 13 175
e 13 187
e 13 197
e 13 206
e 13 209
e 13 212
e 13 231
e 13 252
e 13 261
e 13 267
e 13 278
e 13 287
e 13 294
e 13 297
e 13 302
e 13 315
e 13 332
e 13 375
e 13 405
e 13 409
e 13 427
e 13 429
e 13 441
e 13 448
e 13 449
e 13 455
e 13 456
e 13 467
e 13 476
e 13 489
e 13 491
e 13 496
e 13 503
e 13 505
e 13 508
e 13 516
e 13 528
e 13 535
e 13 543
e 13 564
e 13 565
e 13 566
e 13 576
e 13 580
e 13 598
e 13 601
e 13 635
e 13 644
e 13 650
e 13 664
e 13 665
e 13 680
e 13 684
e 13 687
e 13 691
e 13 699
e 13 736
e 13 741
e 13 746
e 13 751
e 13 754
e 13 792
e 13 793
e 13 795
e 13 822
e 13 834
e 13 844
e 13 857
e 13 858
e 13 881
e 13 906
e 13 909
e 13 914
e 13 928
e 13 934
e 13 942
e 13 943
e 13 945
e 13 975
e 13 997
e 14 28
e 14 34
e 14 42
e 14 49
e 14 52
e 14 54
e 14 68
e 14 86
e 14 88
e 14 95
e 14 102
e 14 114
e 14 117
e 14 135
e 14 137
e 14 139
e 14 156
e 14 157
e 14 163
e 14 177
e 14 185
e 14 194
e 14 216
e 14 237
e 14 239
e 14 253
e 14 270
e 14 278
e 14 280
e 14 294
e 14 295
e 14 305
e 14 315
e 14 328
e 14 363
e 14 364
e 14 386
e 14 393
e 14 396
e 14 403
e 14 405
e 14 435
e 14 444
e 14 452
e 14 463
e 14 480
e 14 485
e 14 500
e 14 513
e 14 515
e 14 518
e 14 521
e 14 524
e 14 555
e 14 565
e 14 572
e 14 584
e 14 590
e 14 593
e 14 597
e 14 609
e 14 614
e 14 615
e 14 617
e 14 630
e 14 635
e 14 640
e 14 649
e 14 675
e 14 678
e 14 684
e 14 685
e 14 689
e 14 692
e 14 729
e 14 730
e 14 734
e 14 742
e 14 753
e 14 762
e 14 805
e 14 807
e 14 816
e 14 871
e 14 882
e 14 886
e 14 894
e 14 898
e 14 917
e 14 921
e 14 975
e 14 993
e 14 995
e 15 36
e 15 50
e 15 63
e 15 73
e 15 81
e 15 91
e 15 113
e 15 117
e 15 126
e 15 141
e 15 145
e 15 148
e 15 165
e 15 170
e 15 172
e 15 205
e 15 220
e 15 257
e 15 279
e 15 280
e 15 283
e 15 289
e 15 296
e 15 309
e 15 310
e 15 313
e 15 315
e 15 322
e 15 339
e 15 341
e 15 345
e 15 382
e 15 383
e 15 394
e 15 400
e 15 410
e 15 424
e 15 430
e 15 445
e 15 450
e 15 451
e 15 455
e 15 467
e 15 469
e 15 478
e 15 482
e 15 504
e 15 517
e 15 541
e 15 546
e 15 548
e 15 569
e 15 573
e 15 584
e 15 589
e 15 590
e 15 593
e 15 597
e 15 599
e 15 606
e 15 610
e 15 617
e 15 626
e 15 629
e 15 658
e 15 670
e 15 672
e 15 680
e 15 685
e 15 711
e 15 718
e 15 721
e 15 725
e 15 751
e 15 762
e 15 768
e 15 775
e 15 783
e 15 814
e 15 822
e 15 859
e 15 875
e 15 881
e 15 885
e 15 908
e 15 911
e 15 912
e 15 925
e 15 941
e 15 950
e 15 954
e 15 967
e 15 972
e 15 973
e 15 981
e 15 983
e 15 984
e 15 985
e 15 990
e 15 999
e 16 17
e 16 18
e 16 27
e 16 31
e 16 46
e 16 55
e 16 56
e 16 62
e 16 71
e 16 76
e 16 104
e 16 108
e 16 112
e 16 121
e 16 137
e 16 139
e 16 141
e 16 143
e 16 158
e 16 163
e 16 206
e 16 214
e 16 225
e 16 230
e 16 238
e 16 246
e 16 250
e 16 263
e 16 294
e 16 297
e 16 307
e 16 308
e 16 331
e 16 336
e 16 344
e 16 363
e 16 371
e 16 386
e 16 402
e 16 403
e 16 437
e 16 442
e 16 453
e 16 474
e 16 488
e 16 494
e 16 504
e 16 523
e 16 526
e 16 534
e 16 546
e 16 555
e 16 563
e 16 583
e 16 585
e 16 591
e 16 599
e 16 601
e 16 613
e 16 633
e 16 634
e 16 644
e 16 647
e 16 654
e 16 668
e 16 680
e 16 693
e 16 704
e 16 712
e 16 716
e 16 719
e 16 723
e 16 730
e 16 734
e 16 735
e 16 743
e 16 756
e 16 760
e 16 762
e 16 764
e 16 771
e 16 784
e 16 785
e 16 792
e 16 798
e 16 803
e 16 833
e 16 836
e 16 847
e 16 848
e 16 851
e 16 905
e 16 907
e 16 929
e 16 930
e 16 940
e 16 942
e 17 21
e 17 52
e 17 70
e 17 92
e 17 93
e 17 99
e 17 107
e 17 116
e 17 131
e 17 137
e 17 139
e 17 143
e 17 145
e 17 160
e 17 163
e 17 164
e 17 167
e 17 176
e 17 186
e 17 192
e 17 200
e 17 214
e 17 224
e 17 231
e 17 238
e 17 245
e 17 249
e 17 250
e 17 287
e 17 304
e 17 314
e 17 345
e 17 353
e 17 354
e 17 375
e 17 383
e 17 391
e 17 406
e 17 411
e 17 424
e 17 429
e 17 430
e 17 434
e 17 444
e 17 452
e 17 460
e 17 464
e 17 469
e 17 470
e 17 477
e 17 490
e 17 494
e 17 498
e 17 513
e 17 525
e 17 527
e 17 556
e 17 574
e 17 584
e 17 588
e 17 612
e 17 618
e 17 623
e 17 627
e 17 635
e 17 636
e 17 647
e 17 649
e 17 660
e 17 671
e 17 678
e 17 687
e 17 696
e 17 707
e 17 713
e 17 726
e 17 731
e 17 745
e 17 759
e 17 777
e 17 789
e 17 802
e 17 805
e 17 818
e 17 826
e 17 860
e 17 866
e 17 867
e 17 868
e 17 871
e 17 873
e 17 902
e 17 906
e 17 926
e 17 936
e 17 955
e 17 956
e 17 957
e 17 959
e 17 960
e 17 961
e 17 984
e 17 986
e 17 996
e 17 999
e 18 19
e 18 21
e 18 22
e 18 28
e 18 29
e 18 30
e 18 35
e 18 36
e 18 74
e 18 83
e 18 90
e 18 94
e 18 99
e 18 101
e 18 132
e 18 166
e 18 193
e 18 197
e 18 206
e 18 214
e 18 217
e 18 218
e 18 225
e 18 230
e 18 247
e 18 249
e 18 253
e 18 256
e 18 293
e 18 315
e 18 355
e 18 361
e 18 367
e 18 378
e 18 382
e 18 387
e 18 391
e 18 395
e 18 403
e 18 405
e 18 422
e 18 428
e 18 430
e 18 446
e 18 451
e 18 452
e 18 454
e 18 461
e 18 462
e 18 467
e 18 470
e 18 487
e 18 489
e 18 499
e 18 500
e 18 504
e 18 510
e 18 534
e 18 538
e 18 539
e 18 553
e 18 565
e 18 577
e 18 578
e 18 600
e 18 603
e 18 612
e 18 614
e 18 635
e 18 648
e 18 655
e 18 658
e 18 672
e 18 680
e 18 702
e 18 743
e 18 749
e 18 770
e 18 774
e 18 790
e 18 800
e 18 823
e 18 838
e 18 841
e 18 843
e 18 853
e 18 855
e 18 856
e 18 866
e 18 868
e 18 869
e 18 873
e 18 892
e 18 897
e 18 903
e 18 907
e 18 914
e 18 926
e 18 931
e 18 972
e 18 984
e 18 994
e 19 22
e 19 36
e 19 37
e 19 39
e 19 43
e 19 48
e 19 76
e 19 92
e 19 97
e 19 109
e 19 114
e 19 115
e 19 137
e 19 139
e 19 145
e 19 162
e 19 199
e 19 203
e 19 205
e 19 219
e 19 245
e 19 246
e 19 270
e 19 286
e 19 295
e 19 303
e 19 305
e 19 307
e 19 320
e 19 334
e 19 354
e 19 359
e 19 361
e 19 374
e 19 390
e 19 406
e 19 415
e 19 431
e 19 441
e 19 449
e 19 452
e 19 457
e 19 480
e 19 485
e 19 512
e 19 537
e 19 545
e 19 570
e 19 574
e 19 601
e 19 606
e 19 609
e 19 614
e 19 615
e 19 622
e 19 632
e 19 662
e 19 665
e 19 666
e 19 700
e 19 704
e 19 716
e 19 744
e 19 755
e 19 762
e 19 767
e 19 770
e 19 782
e 19 784
e 19 791
e 19 801
e 19 809
e 19 820
e 19 833
e 19 838
e 19 843
e 19 848
e 19 854
e 19 864
e 19 876
e 19 895
e 19 899
e 19 900
e 19 911
e 19 913
e 19 924
e 19 934
e 19 939
e 19 952
e 19 964
e 19 975
e 19 989
e 20 28
e 20 45
e 20 53
e 20 54
e 20 55
e 20 61
e 20 66
e 20 68
e 20 85
e 20 91
e 20 98
e 20 115
e 20 124
e 20 137
e 20 167
e 20 198
e 20 210
e 20 215
e 20 219
e 20 228
e 20 243
e 20 244
e 20 249
e 20 254
e 20 256
e 20 266
e 20 267
e 20 288
e 20 291
e 20 317
e 20 333
e 20 338
e 20 352
e 20 370
e 20 380
e 20 388
e 20 396
e 20 413
e 20 421
e 20 424
e 20 432
e 20 436
e 20 464
e 20 494
e 20 532
e 20 533
e 20 537
e 20 547
e 20 567
e 20 574
e 20 575
e 20 587
e 20 590
e 20 602
e 20 611
e 20 621
e 20 625
e 20 627
e 20 632
e 20 638
e 20 657
e 20 658
e 20 665
e 20 668
e 20 725
e 20 732
e 20 733
e 20 742
e 20 752
e 20 770
e 20 771
e 20 773
e 20 781
e 20 787
e 20 798
e 20 804
e 20 806
e 20 814
e 20 820
e 20 828
e 20 836
e 20 843
e 20 867
e 20 891
e 20 898
e 20 905
e 20 913
e 20 915
e 20 929
e 20 946
e 20 951
e 20 958
e 20 967
e 20 999
e 21 22
e 21 31
e 21 37
e 21 45
e 21 73
e 21 81
e 21 84
e 21 87
e 21 94
e 21 96
e 21 104
e 21 107
e 21 111
e 21 117
e 21 127
e 21 128
e 21 129
e 21 186
e 21 188
e 21 190
e 21 200
e 21 213
e 21 223
e 21 230
e 21 232
e 21 236
e 21 254
e 21 302
e 21 303
e 21 310
e 21 311
e 21 312
e 21 314
e 21 333
e 21 336
e 21 339
e 21 342
e 21 348
e 21 350
e 21 354
e 21 359
e 21 373
e 21 380
e 21 391
e 21 403
e 21 414
e 21 419
e 21 421
e 21 423
e 21 427
e 21 432
e 21 457
e 21 458
e 21 469
e 21 477
e 21 483
e 21 503
e 21 509
e 21 522
e 21 532
e 21 534
e 21 541
e 21 563
e 21 569
e 21 572
e 21 585
e 21 592
e 21 600
e 21 603
e 21 607
e 21 613
e 21 617
e 21 625
e 21 690
e 21 692
e 21 699
e 21 701
e 21 703
e 21 720
e 21 725
e 21 726
e 21 728
e 21 740
e 21 743
e 21 752
e 21 767
e 21 776
e 21 787
e 21 820
e 21 822
e 21 823
e 21 829
e 21 831
e 21 836
e 21 838
e 21 853
e 21 854
e 21 856
e 21 877
e 21 890
e 21 917
e 21 920
e 21 944
e 21 974
e 21 977
e 21 982
e 22 35
e 22 52
e 22 68
e 22 83
e 22 90
e 22 91
e 22 111
e 22 112
e 22 116
e 22 121
e 22 126
e 22 128
e 22 131
e 22 139
e 22 144
e 22 161
e 22 178
e 22 181
e 22 189
e 22 190
e 22 202
e 22 204
e 22 219
e 22 222
e 22 230
e 22 233
e 22 244
e 22 261
e 22 262
e 22 264
e 22 295
e 22 314
e 22 321
e 22 322
e 22 326
e 22 328
e 22 331
e 22 352
e 22 356
e 22 364
e 22 365
e 22 369
e 22 375
e 22 382
e 22 393
e 22 395
e 22 401
e 22 408
e 22 410
e 22 416
e 22 449
e 22 462
e 22 481
e 22 498
e 22 521
e 22 523
e 22 525
e 22 536
e 22 544
e 22 561
e 22 575
e 22 579
e 22 580
e 22 593
e 22 627
e 22 629
e 22 633
e 22 644
e 22 649
e 22 650
e 22 658
e 22 666
e 22 667
e 22 673
e 22 678
e 22 686
e 22 703
e 22 704
e 22 714
e 22 723
e 22 728
e 22 737
e 22 738
e 22 745
e 22 748
e 22 751
e 22 770
e 22 794
e 22 806
e 22 808
e 22 814
e 22 822
e 22 845
e 22 888
e 22 893
e 22 894
e 22 905
e 22 908
e 22 923
e 22 924
e 22 933
e 22 943
e 22 945
e 22 953
e 22 959
e 22 961
e 22 977
e 22 980
e 22 993
e 22 995
e 23 25
e 23 27
e 23 39
e 23 47
e 23 51
e 23 67
e 23 70
e 23 77
e 23 113
e 23 123
e 23 131
e 23 141
e 23 160
e 23 174
e 23 184
e 23 210
e 23 214
e 23 217
e 23 223
e 23 227
e 23 240
e 23 251
e 23 276
e 23 277
e 23 285
e 23 289
e 23 296
e 23 316
e 23 325
e 23 334
e 23 337
e 23 340
e 23 346
e 23 353
e 23 359
e 23 363
e 23 372
e 23 376
e 23 378
e 23 385
e 23 394
e 23 398
e 23 410
e 23 416
e 23 420
e 23 423
e 23 427
e 23 474
e 23 476
e 23 497
e 23 509
e 23 521
e 23 535
e 23 554
e 23 558
e 23 578
e 23 579
e 23 594
e 23 600
e 23 607
e 23 609
e 23 613
e 23 614
e 23 618
e 23 626
e 23 638
e 23 641
e 23 646
e 23 653
e 23 661
e 23 699
e 23 702
e 23 705
e 23 715
e 23 746
e 23 777
e 23 791
e 23 796
e 23 835
e 23 838
e 23 842
e 23 873
e 23 877
e 23 892
e 23 895
e 23 900
e 23 904
e 23 915
e 23 921
e 23 934
e 23 956
e 23 965
e 23 973
e 23 997
e 24 27
e 24 45
e 24 52
e 24 78
e 24 102
e 24 131
e 24 136
e 24 161
e 24 188
e 24 190
e 24 201
e 24 216
e 24 226
e 24 238
e 24 252
e 24 272
e 24 277
e 24 278
e 24 281
e 24 292
e 24 293
e 24 298
e 24 305
e 24 312
e 24 314
e 24 325
e 24 326
e 24 329
e 24 331
e 24 340
e 24 347
e 24 352
e 24 358
e 24 361
e 24 365
e 24 371
e 24 396
e 24 397
e 24 423
e 24 450
e 24 452
e 24 453
e 24 461
e 24 470
e 24 475
e 24 481
e 24 484
e 24 486
e 24 487
e 24 496
e 24 504
e 24 511
e 24 521
e 24 523
e 24 525
e 24 527
e 24 528
e 24 540
e 24 564
e 24 578
e 24 580
e 24 594
e 24 629
e 24 657
e 24 658
e 24 670
e 24 672
e 24 674
e 24 678
e 24 683
e 24 697
e 24 720
e 24 723
e 24 755
e 24 758
e 24 763
e 24 764
e 24 772
e 24 779
e 24 807
e 24 810
e 24 849
e 24 857
e 24 863
e 24 865
e 24 869
e 24 870
e 24 898
e 24 930
e 24 945
e 24 957
e 24 963
e 24 966
e 24 986
e 24 996
e 25 27
e 25 31
e 25 46
e 25 112
e 25 121
e 25 134
e 25 141
e 25 154
e 25 183
e 25 189
e 25 191
e 25 204
e 25 205
e 25 208
e 25 211
e 25 233
e 25 238
e 25 241
e 25 254
e 25 257
e 25 260
e 25 267
e 25 268
e 25 270
e 25 282
e 25 317
e 25 324
e 25 333
e 25 357
e 25 371
e 25 376
e 25 391
e 25 410
e 25 417
e 25 421
e 25 424
e 25 438
e 25 442
e 25 444
e 25 453
e 25 462
e 25 466
e 25 496
e 25 517
e 25 539
e 25 566
e 25 568
e 25 574
e 25 601
e 25 606
e 25 621
e 25 633
e 25 643
e 25 648
e 25 667
e 25 682
e 25 689
e 25 693
e 25 698
e 25 700
e 25 702
e 25 712
e 25 719
e 25 736
e 25 742
e 25 749
e 25 753
e 25 758
e 25 772
e 25 777
e 25 790
e 25 798
e 25 825
e 25 827
e 25 838
e 25 840
e 25 841
e 25 874
e 25 875
e 25 883
e 25 901
e 25 910
e 25 913
e 25 923
e 25 926
e 25 932
e 25 940
e 25 942
e 25 947
e 25 964
e 25 966
e 25 998
e 26 27
e 26 38
e 26 54
e 26 61
e 26 63
e 26 65
e 26 94
e 26 118
e 26 125
e 26 131
e 26 137
e 26 138
e 26 139
e 26 144
e 26 151
e 26 166
e 26 202
e 26 215
e 26 221
e 26 223
e 26 232
e 26 246
e 26 248
e 26 259
e 26 275
e 26 284
e 26 315
e 26 340
e 26 342
e 26 350
e 26 358
e 26 361
e 26 363
e 26 372
e 26 402
e 26 404
e 26 427
e 26 438
e 26 445
e 26 496
e 26 510
e 26 539
e 26 545
e 26 550
e 26 572
e 26 590
e 26 598
e 26 619
e 26 628
e 26 632
e 26 654
e 26 666
e 26 680
e 26 682
e 26 683
e 26 684
e 26 686
e 26 687
e 26 689
e 26 695
e 26 696
e 26 703
e 26 707
e 26 712
e 26 716
e 26 725
e 26 726
e 26 738
e 26 748
e 26 755
e 26 769
e 26 771
e 26 791
e 26 798
e 26 801
e 26 816
e 26 825
e 26 826
e 26 834
e 26 844
e 26 847
e 26 850
e 26 858
e 26 865
e 26 872
e 26 879
e 26 883
e 26 884
e 26 885
e 26 894
e 26 913
e 26 914
e 26 917
e 26 934
e 26 944
e 26 950
e 26 958
e 26 959
e 26 966
e 26 979
e 26 985
e 26 988
e 27 37
e 27 77
e 27 111
e 27 139
e 27 142
e 27 157
e 27 178
e 27 182
e 27 183
e 27 189
e 27 198
e 27 205
e 27 210
e 27 224
e 27 233
e 27 237
e 27 240
e 27 252
e 27 258
e 27 269
e 27 273
e 27 279
e 27 285
e 27 289
e 27 325
e 27 345
e 27 352
e 27 354
e 27 369
e 27 372
e 27 380
e 27 381
e 27 408
e 27 414
e 27 418
e 27 426
e 27 437
e 27 449
e 27 454
e 27 455
e 27 460
e 27 498
e 27 502
e 27 506
e 27 526
e 27 528
e 27 530
e 27 540
e 27 542
e 27 544
e 27 558
e 27 559
e 27 565
e 27 569
e 27 605
e 27 609
e 27 618
e 27 623
e 27 634
e 27 654
e 27 667
e 27 672
e 27 678
e 27 685
e 27 707
e 27 714
e 27 716
e 27 728
e 27 731
e 27 732
e 27 738
e 27 741
e 27 761
e 27 768
e 27 769
e 27 787
e 27 788
e 27 794
e 27 799
e 27 809
e 27 811
e 27 827
e 27 830
e 27 837
e 27 843
e 27 853
e 27 855
e 27 862
e 27 871
e 27 882
e 27 885
e 27 889
e 27 892
e 27 898
e 27 911
e 27 926
e 27 937
e 27 947
e 27 954
e 27 960
e 28 61
e 28 71
e 28 78
e 28 94
e 28 96
e 28 102
e 28 106
e 28 127
e 28 159
e 28 161
e 28 166
e 28 167
e 28 177
e 28 179
e 28 195
e 28 200
e 28 208
e 28 214
e 28 218
e 28 233
e 28 246
e 28 264
e 28 277
e 28 283
e 28 304
e 28 315
e 28 320
e 28 339
e 28 359
e 28 381
e 28 394
e 28 396
e 28 397
e 28 427
e 28 440
e 28 446
e 28 450
e 28 452
e 28 453
e 28 459
e 28 484
e 28 491
e 28 502
e 28 503
e 28 511
e 28 526
e 28 532
e 28 534
e 28 538
e 28 550
e 28 560
e 28 578
e 28 579
e 28 581
e 28 587
e 28 591
e 28 602
e 28 604
e 28 609
e 28 620
e 28 629
e 28 644
e 28 653
e 28 654
e 28 662
e 28 672
e 28 674
e 28 679
e 28 709
e 28 716
e 28 774
e 28 783
e 28 830
e 28 835
e 28 836
e 28 855
e 28 859
e 28 860
e 28 861
e 28 876
e 28 881
e 28 888
e 28 894
e 28 895
e 28 900
e 28 901
e 28 911
e 28 916
e 28 922
e 28 933
e 28 937
e 28 941
e 28 958
e 28 964
e 28 997
e 29 50
e 29 69
e 29 70
e 29 74
e 29 91
e 29 98
e 29 104
e 29 110
e 29 113
e 29 117
e 29 140
e 29 141
e 29 157
e 29 162
e 29 173
e 29 179
e 29 187
e 29 204
e 29 210
e 29 216
e 29 239
e 29 247
e 29 254
e 29 261
e 29 277
e 29 280
e 29 286
e 29 295
e 29 297
e 29 309
e 29 343
e 29 385
e 29 425
e 29 436
e 29 454
e 29 464
e 29 503
e 29 527
e 29 531
e 29 539
e 29 551
e 29 578
e 29 579
e 29 586
e 29 605
e 29 606
e 29 635
e 29 647
e 29 648
e 29 650
e 29 659
e 29 664
e 29 671
e 29 672
e 29 696
e 29 713
e 29 716
e 29 721
e 29 751
e 29 775
e 29 784
e 29 818
e 29 826
e 29 845
e 29 848
e 29 860
e 29 863
e 29 864
e 29 881
e 29 889
e 29 920
e 29 930
e 29 933
e 29 938
e 29 939
e 29 948
e 29 952
e 29 965
e 29 974
e 29 987
e 30 46
e 30 50
e 30 64
e 30 65
e 30 68
e 30 73
e 30 85
e 30 87
e 30 89
e 30 94
e 30 105
e 30 115
e 30 118
e 30 132
e 30 133
e 30 150
e 30 152
e 30 155
e 30 169
e 30 193
e 30 195
e 30 201
e 30 239
e 30 242
e 30 250
e 30 251
e 30 264
e 30 282
e 30 301
e 30 302
e 30 320
e 30 341
e 30 369
e 30 380
e 30 382
e 30 392
e 30 407
e 30 413
e 30 419
e 30 424
e 30 431
e 30 437
e 30 445
e 30 467
e 30 468
e 30 503
e 30 508
e 30 524
e 30 536
e 30 587
e 30 591
e 30 595
e 30 602
e 30 615
e 30 635
e 30 639
e 30 647
e 30 671
e 30 673
e 30 685
e 30 692
e 30 694
e 30 706
e 30 726
e 30 747
e 30 762
e 30 766
e 30 774
e 30 788
e 30 797
e 30 819
e 30 820
e 30 823
e 30 828
e 30 829
e 30 863
e 30 868
e 30 882
e 30 898
e 30 909
e 30 923
e 30 928
e 30 931
e 30 935
e 30 940
e 30 949
e 30 950
e 30 965
e 30 975
e 30 984
e 30 989
e 30 1000
e 31 37
e 31 40
e 31 44
e 31 51
e 31 56
e 31 73
e 31 83
e 31 93
e 31 102
e 31 125
e 31 127
e 31 148
e 31 149
e 31 156
e 31 158
e 31 161
e 31 168
e 31 175
e 31 178
e 31 179
e 31 184
e 31 189
e 31 193
e 31 198
e 31 199
e 31 211
e 31 214
e 31 234
e 31 235
e 31 237
e 31 245
e 31 266
e 31 272
e 31 290
e 31 306
e 31 326
e 31 329
e 31 331
e 31 337
e 31 340
e 31 341
e 31 355
e 31 377
e 31 381
e 31 388
e 31 390
e 31 407
e 31 409
e 31 410
e 31 428
e 31 432
e 31 433
e 31 435
e 31 442
e 31 480
e 31 489
e 31 492
e 31 499
e 31 511
e 31 521
e 31 529
e 31 533
e 31 534
e 31 537
e 31 541
e 31 553
e 31 572
e 31 579
e 31 588
e 31 593
e 31 596
e 31 607
e 31 616
e 31 634
e 31 648
e 31 652
e 31 681
e 31 690
e 31 719
e 31 721
e 31 722
e 31 732
e 31 746
e 31 748
e 31 752
e 31 757
e 31 779
e 31 808
e 31 810
e 31 844
e 31 863
e 31 865
e 31 886
e 31 909
e 31 914
e 31 919
e 31 929
e 31 941
e 31 946
e 31 952
e 31 968
e 31 987
e 31 992
e 31 993
e 32 92
e 32 106
e 32 114
e 32 127
e 32 131
e 32 132
e 32 133
e 32 136
e 32 161
e 32 163
e 32 168
e 32 174
e 32 179
e 32 186
e 32 202
e 32 207
e 32 232
e 32 235
e 32 236
e 32 246
e 32 258
e 32 274
e 32 278
e 32 293
e 32 309
e 32 314
e 32 316
e 32 318
e 32 330
e 32 345
e 32 349
e 32 368
e 32 374
e 32 393
e 32 406
e 32 412
e 32 422
e 32 431
e 32 444
e 32 457
e 32 474
e 32 489
e 32 498
e 32 508
e 32 521
e 32 525
e 32 530
e 32 541
e 32 544
e 32 545
e 32 556
e 32 564
e 32 567
e 32 569
e 32 571
e 32 576
e 32 577
e 32 596
e 32 666
e 32 667
e 32 668
e 32 676
e 32 683
e 32 687
e 32 690
e 32 703
e 32 724
e 32 739
e 32 758
e 32 759
e 32 788
e 32 803
e 32 807
e 32 818
e 32 821
e 32 822
e 32 872
e 32 883
e 32 895
e 32 902
e 32 905
e 32 914
e 32 918
e 32 920
e 32 924
e 32 940
e 32 946
e 32 960
e 32 965
e 32 967
e 32 975
e 32 976
e 32 988
e 32 996
e 32 998
e 32 1000
e 33 47
e 33 53
e 33 60
e 33 82
e 33 85
e 33 91
e 33 102
e 33 106
e 33 120
e 33 124
e 33 132
e 33 137
e 33 139
e 33 155
e 33 161
e 33 192
e 33 195
e 33 199
e 33 235
e 33 237
e 33 252
e 33 257
e 33 264
e 33 272
e 33 287
e 33 296
e 33 299
e 33 311
e 33 314
e 33 319
e 33 339
e 33 356
e 33 360
e 33 362
e 33 363
e 33 366
e 33 374
e 33 408
e 33 412
e 33 444
e 33 457
e 33 461
e 33 507
e 33 510
e 33 516
e 33 520
e 33 527
e 33 541
e 33 545
e 33 565
e 33 583
e 33 584
e 33 588
e 33 593
e 33 596
e 33 599
e 33 606
e 33 619
e 33 638
e 33 641
e 33 652
e 33 666
e 33 671
e 33 682
e 33 683
e 33 698
e 33 720
e 33 754
e 33 758
e 33 760
e 33 766
e 33 776
e 33 777
e 33 779
e 33 797
e 33 803
e 33 809
e 33 813
e 33 850
e 33 860
e 33 861
e 33 878
e 33 886
e 33 888
e 33 889
e 33 899
e 33 902
e 33 927
e 33 933
e 33 938
e 33 942
e 33 957
e 33 961
e 33 974
e 33 977
e 33 985
e 33 999
e 34 39
e 34 53
e 34 55
e 34 66
e 34 75
e 34 83
e 34 91
e 34 107
e 34 130
e 34 136
e 34 157
e 34 164
e 34 170
e 34 180
e 34 186
e 34 207
e 34 224
e 34 225
e 34 227
e 34 231
e 34 249
e 34 258
e 34 263
e 34 268
e 34 278
e 34 315
e 34 317
e 34 327
e 34 328
e 34 331
e 34 347
e 34 351
e 34 358
e 34 361
e 34 363
e 34 372
e 34 374
e 34 375
e 34 383
e 34 390
e 34 396
e 34 402
e 34 408
e 34 409
e 34 417
e 34 428
e 34 463
e 34 466
e 34 471
e 34 477
e 34 486
e 34 492
e 34 499
e 34 500
e 34 505
e 34 509
e 34 516
e 34 538
e 34 544
e 34 550
e 34 551
e 34 553
e 34 557
e 34 560
e 34 561
e 34 565
e 34 566
e 34 571
e 34 577
e 34 580
e 34 581
e 34 595
e 34 612
e 34 619
e 34 645
e 34 658
e 34 664
e 34 666
e 34 669
e 34 675
e 34 700
e 34 704
e 34 734
e 34 736
e 34 739
e 34 743
e 34 745
e 34 747
e 34 764
e 34 777
e 34 783
e 34 784
e 34 806
e 34 808
e 34 810
e 34 815
e 34 857
e 34 862
e 34 868
e 34 878
e 34 898
e 34 905
e 34 919
e 34 920
e 35 46
e 35 57
e 35 75
e 35 77
e 35 84
e 35 93
e 35 103
e 35 110
e 35 155
e 35 161
e 35 166
e 35 170
e 35 171
e 35 174
e 35 179
e 35 185
e 35 186
e 35 212
e 35 215
e 35 216
e 35 228
e 35 244
e 35 262
e 35 296
e 35 300
e 35 301
e 35 307
e 35 310
e 35 312
e 35 365
e 35 375
e 35 381
e 35 405
e 35 406
e 35 407
e 35 412
e 35 432
e 35 442
e 35 445
e 35 467
e 35 474
e 35 475
e 35 498
e 35 505
e 35 506
e 35 517
e 35 521
e 35 531
e 35 532
e 35 542
e 35 574
e 35 575
e 35 578
e 35 597
e 35 598
e 35 606
e 35 608
e 35 629
e 35 633
e 35 652
e 35 668
e 35 682
e 35 683
e 35 721
e 35 759
e 35 786
e 35 794
e 35 801
e 35 810
e 35 812
e 35 816
e 35 821
e 35 854
e 35 872
e 35 873
e 35 882
e 35 884
e 35 889
e 35 893
e 35 917
e 35 922
e 35 925
e 35 929
e 35 934
e 35 935
e 35 951
e 35 960
e 35 968
e 35 971
e 35 981
e 35 986
e 35 988
e 35 993
e 36 40
e 36 61
e 36 65
e 36 67
e 36 70
e 36 80
e 36 81
e 36 94
e 36 101
e 36 110
e 36 116
e 36 139
e 36 170
e 36 183
e 36 197
e 36 209
e 36 230
e 36 233
e 36 239
e 36 253
e 36 260
e 36 273
e 36 285
e 36 286
e 36 289
e 36 299
e 36 305
e 36 321
e 36 322
e 36 350
e 36 358
e 36 359
e 36 364
e 36 371
e 36 376
e 36 404
e 36 416
e 36 418
e 36 420
e 36 433
e 36 434
e 36 460
e 36 471
e 36 475
e 36 495
e 36 515
e 36 516
e 36 526
e 36 527
e 36 530
e 36 538
e 36 540
e 36 542
e 36 545
e 36 550
e 36 560
e 36 574
e 36 579
e 36 585
e 36 593
e 36 595
e 36 619
e 36 620
e 36 631
e 36 632
e 36 636
e 36 649
e 36 662
e 36 684
e 36 686
e 36 687
e 36 691
e 36 714
e 36 717
e 36 726
e 36 746
e 36 774
e 36 778
e 36 779
e 36 805
e 36 815
e 36 823
e 36 825
e 36 829
e 36 847
e 36 857
e 36 858
e 36 863
e 36 865
e 36 869
e 36 878
e 36 885
e 36 886
e 36 898
e 36 904
e 36 906
e 36 917
e 36 931
e 36 936
e 36 955
e 36 962
e 36 968
e 36 990
e 36 997
e 37 47
e 37 63
e 37 77
e 37 93
e 37 94
e 37 101
e 37 104
e 37 118
e 37 127
e 37 132
e 37 135
e 37 151
e 37 164
e 37 174
e 37 179
e 37 181
e 37 189
e 37 190
e 37 194
e 37 197
e 37 216
e 37 224
e 37 233
e 37 257
e 37 288
e 37 296
e 37 297
e 37 312
e 37 323
e 37 336
e 37 338
e 37 350
e 37 361
e 37 389
e 37 390
e 37 391
e 37 401
e 37 431
e 37 435
e 37 448
e 37 486
e 37 499
e 37 501
e 37 528
e 37 533
e 37 536
e 37 542
e 37 555
e 37 559
e 37 562
e 37 579
e 37 595
e 37 600
e 37 612
e 37 613
e 37 623
e 37 629
e 37 646
e 37 649
e 37 650
e 37 675
e 37 676
e 37 703
e 37 705
e 37 707
e 37 724
e 37 727
e 37 753
e 37 755
e 37 786
e 37 823
e 37 850
e 37 901
e 37 904
e 37 906
e 37 942
e 37 960
e 37 962
e 37 966
e 37 970
e 37 979
e 37 992
e 38 40
e 38 55
e 38 59
e 38 64
e 38 91
e 38 95
e 38 102
e 38 120
e 38 153
e 38 154
e 38 162
e 38 196
e 38 204
e 38 237
e 38 248
e 38 271
e 38 282
e 38 293
e 38 310
e 38 312
e 38 315
e 38 331
e 38 333
e 38 336
e 38 353
e 38 354
e 38 356
e 38 374
e 38 383
e 38 389
e 38 430
e 38 437
e 38 453
e 38 460
e 38 463
e 38 469
e 38 477
e 38 481
e 38 483
e 38 484
e 38 492
e 38 499
e 38 508
e 38 512
e 38 521
e 38 526
e 38 531
e 38 546
e 38 547
e 38 549
e 38 553
e 38 577
e 38 583
e 38 590
e 38 616
e 38 627
e 38 646
e 38 647
e 38 653
e 38 661
e 38 668
e 38 681
e 38 686
e 38 691
e 38 706
e 38 710
e 38 731
e 38 734
e 38 748
e 38 751
e 38 771
e 38 789
e 38 814
e 38 835
e 38 840
e 38 878
e 38 904
e 38 905
e 38 906
e 38 912
e 38 926
e 38 967
e 38 974
e 38 985
e 38 993
e 39 51
e 39 59
e 39 62
e 39 79
e 39 93
e 39 94
e 39 96
e 39 103
e 39 105
e 39 106
e 39 122
e 39 125
e 39 128
e 39 133
e 39 145
e 39 159
e 39 217
e 39 222
e 39 232
e 39 248
e 39 255
e 39 257
e 39 259
e 39 262
e 39 271
e 39 274
e 39 313
e 39 316
e 39 322
e 39 330
e 39 332
e 39 350
e 39 356
e 39 361
e 39 366
e 39 371
e 39 376
e 39 388
e 39 398
e 39 438
e 39 439
e 39 446
e 39 458
e 39 473
e 39 475
e 39 483
e 39 486
e 39 512
e 39 519
e 39 522
e 39 544
e 39 548
e 39 553
e 39 558
e 39 560
e 39 561
e 39 569
e 39 574
e 39 576
e 39 580
e 39 589
e 39 591
e 39 592
e 39 599
e 39 631
e 39 638
e 39 656
e 39 660
e 39 698
e 39 713
e 39 749
e 39 762
e 39 764
e 39 782
e 39 785
e 39 797
e 39 803
e 39 811
e 39 821
e 39 839
e 39 846
e 39 856
e 39 862
e 39 895
e 39 914
e 39 924
e 39 939
e 39 940
e 39 951
e 39 952
e 39 956
e 39 962
e 39 972
e 39 978
e 39 991
e 39 992
e 40 41
e 40 55
e 40 56
e 40 59
e 40 69
e 40 74
e 40 89
e 40 95
e 40 98
e 40 99
e 40 102
e 40 115
e 40 117
e 40 136
e 40 138
e 40 141
e 40 149
e 40 162
e 40 167
e 40 169
e 40 171
e 40 178
e 40 207
e 40 208
e 40 211
e 40 213
e 40 228
e 40 243
e 40 251
e 40 268
e 40 272
e 40 276
e 40 281
e 40 300
e 40 309
e 40 326
e 40 330
e 40 374
e 40 379
e 40 382
e 40 391
e 40 401
e 40 403
e 40 416
e 40 457
e 40 467
e 40 479
e 40 490
e 40 505
e 40 516
e 40 523
e 40 533
e 40 541
e 40 545
e 40 565
e 40 581
e 40 590
e 40 599
e 40 635
e 40 643
e 40 645
e 40 651
e 40 652
e 40 656
e 40 661
e 40 663
e 40 666
e 40 673
e 40 712
e 40 719
e 40 721
e 40 723
e 40 744
e 40 755
e 40 767
e 40 772
e 40 809
e 40 813
e 40 821
e 40 831
e 40 832
e 40 839
e 40 844
e 40 851
e 40 855
e 40 877
e 40 917
e 40 936
e 40 939
e 40 954
e 40 978
e 40 992
e 41 42
e 41 59
e 41 66
e 41 71
e 41 76
e 41 88
e 41 112
e 41 132
e 41 139
e 41 142
e 41 147
e 41 162
e 41 165
e 41 185
e 41 188
e 41 191
e 41 205
e 41 255
e 41 256
e 41 267
e 41 297
e 41 301
e 41 318
e 41 336
e 41 347
e 41 380
e 41 385
e 41 386
e 41 393
e 41 414
e 41 429
e 41 434
e 41 440
e 41 449
e 41 470
e 41 487
e 41 488
e 41 501
e 41 519
e 41 526
e 41 530
e 41 542
e 41 543
e 41 560
e 41 563
e 41 586
e 41 593
e 41 595
e 41 604
e 41 615
e 41 620
e 41 639
e 41 646
e 41 666
e 41 674
e 41 682
e 41 692
e 41 694
e 41 701
e 41 702
e 41 711
e 41 719
e 41 728
e 41 733
e 41 736
e 41 759
e 41 778
e 41 791
e 41 825
e 41 832
e 41 849
e 41 857
e 41 861
e 41 867
e 41 890
e 41 892
e 41 925
e 41 928
e 41 931
e 41 949
e 41 982
e 41 986
e 41 993
e 41 997
e 42 44
e 42 56
e 42 58
e 42 68
e 42 77
e 42 82
e 42 85
e 42 90
e 42 101
e 42 103
e 42 117
e 42 122
e 42 128
e 42 137
e 42 146
e 42 176
e 42 200
e 42 242
e 42 250
e 42 252
e 42 282
e 42 297
e 42 302
e 42 310
e 42 331
e 42 332
e 42 339
e 42 340
e 42 356
e 42 361
e 42 369
e 42 370
e 42 377
e 42 378
e 42 393
e 42 438
e 42 440
e 42 449
e 42 451
e 42 456
e 42 460
e 42 461
e 42 484
e 42 489
e 42 494
e 42 534
e 42 562
e 42 597
e 42 599
e 42 601
e 42 604
e 42 606
e 42 617
e 42 630
e 42 631
e 42 634
e 42 652
e 42 660
e 42 662
e 42 664
e 42 665
e 42 668
e 42 679
e 42 685
e 42 695
e 42 700
e 42 711
e 42 741
e 42 744
e 42 753
e 42 756
e 42 773
e 42 781
e 42 787
e 42 791
e 42 799
e 42 800
e 42 814
e 42 820
e 42 827
e 42 842
e 42 858
e 42 861
e 42 868
e 42 885
e 42 890
e 42 903
e 42 918
e 42 925
e 42 926
e 42 928
e 42 955
e 42 962
e 42 966
e 42 970
e 42 975
e 42 984
e 42 991
e 42 995
e 42 999
e 43 44
e 43 56
e 43 86
e 43 93
e 43 102
e 43 103
e 43 109
e 43 134
e 43 152
e 43 165
e 43 168
e 43 170
e 43 181
e 43 186
e 43 192
e 43 193
e 43 203
e 43 239
e 43 246
e 43 269
e 43 275
e 43 294
e 43 318
e 43 331
e 43 332
e 43 340
e 43 381
e 43 392
e 43 395
e 43 397
e 43 402
e 43 404
e 43 414
e 43 417
e 43 437
e 43 447
e 43 476
e 43 479
e 43 485
e 43 500
e 43 509
e 43 519
e 43 531
e 43 581
e 43 589
e 43 596
e 43 606
e 43 624
e 43 668
e 43 677
e 43 693
e 43 699
e 43 716
e 43 717
e 43 718
e 43 719
e 43 721
e 43 750
e 43 751
e 43 752
e 43 755
e 43 756
e 43 762
e 43 772
e 43 777
e 43 783
e 43 810
e 43 827
e 43 834
e 43 839
e 43 841
e 43 850
e 43 852
e 43 856
e 43 862
e 43 868
e 43 873
e 43 875
e 43 906
e 43 909
e 43 910
e 43 920
e 43 935
e 43 948
e 43 950
e 43 957
e 43 962
e 43 965
e 43 978
e 43 980
e 43 981
e 43 989
e 44 45
e 44 50
e 44 52
e 44 73
e 44 89
e 44 91
e 44 100
e 44 105
e 44 106
e 44 108
e 44 116
e 44 121
e 44 142
e 44 156
e 44 192
e 44 204
e 44 208
e 44 221
e 44 222
e 44 237
e 44 239
e 44 251
e 44 254
e 44 261
e 44 269
e 44 280
e 44 295
e 44 304
e 44 325
e 44 333
e 44 336
e 44 339
e 44 370
e 44 375
e 44 378
e 44 393
e 44 400
e 44 402
e 44 417
e 44 431
e 44 433
e 44 438
e 44 441
e 44 460
e 44 463
e 44 473
e 44 491
e 44 505
e 44 510
e 44 513
e 44 523
e 44 538
e 44 539
e 44 553
e 44 564
e 44 584
e 44 630
e 44 639
e 44 651
e 44 663
e 44 674
e 44 693
e 44 699
e 44 705
e 44 726
e 44 744
e 44 749
e 44 782
e 44 785
e 44 788
e 44 792
e 44 802
e 44 805
e 44 817
e 44 825
e 44 830
e 44 856
e 44 868
e 44 922
e 44 953
e 44 966
e 44 969
e 44 974
e 44 981
e 44 991
e 44 1000
e 45 50
e 45 60
e 45 68
e 45 69
e 45 94
e 45 97
e 45 125
e 45 152
e 45 162
e 45 176
e 45 215
e 45 234
e 45 241
e 45 273
e 45 281
e 45 293
e 45 312
e 45 326
e 45 338
e 45 342
e 45 352
e 45 354
e 45 366
e 45 374
e 45 390
e 45 397
e 45 398
e 45 401
e 45 428
e 45 438
e 45 440
e 45 444
e 45 454
e 45 460
e 45 486
e 45 490
e 45 491
e 45 517
e 45 520
e 45 535
e 45 538
e 45 541
e 45 547
e 45 567
e 45 572
e 45 591
e 45 616
e 45 618
e 45 621
e 45 630
e 45 662
e 45 666
e 45 670
e 45 672
e 45 676
e 45 680
e 45 687
e 45 698
e 45 715
e 45 727
e 45 733
e 45 736
e 45 741
e 45 754
e 45 758
e 45 775
e 45 782
e 45 788
e 45 790
e 45 794
e 45 804
e 45 805
e 45 808
e 45 836
e 45 840
e 45 848
e 45 851
e 45 857
e 45 858
e 45 873
e 45 884
e 45 911
e 45 916
e 45 917
e 45 918
e 45 927
e 45 944
e 45 949
e 45 961
e 45 962
e 45 969
e 45 982
e 45 996
e 45 1000
e 46 47
e 46 52
e 46 58
e 46 61
e 46 75
e 46 80
e 46 97
e 46 111
e 46 118
e 46 122
e 46 123
e 46 126
e 46 130
e 46 140
e 46 141
e 46 150
e 46 153
e 46 171
e 46 196
e 46 237
e 46 246
e 46 286
e 46 288
e 46 297
e 46 301
e 46 305
e 46 308
e 46 314
e 46 325
e 46 348
e 46 373
e 46 397
e 46 402
e 46 403
e 46 405
e 46 425
e 46 432
e 46 436
e 46 453
e 46 458
e 46 463
e 46 480
e 46 487
e 46 489
e 46 506
e 46 512
e 46 525
e 46 528
e 46 531
e 46 542
e 46 545
e 46 548
e 46 555
e 46 560
e 46 563
e 46 574
e 46 580
e 46 583
e 46 594
e 46 609
e 46 612
e 46 618
e 46 622
e 46 629
e 46 653
e 46 658
e 46 666
e 46 669
e 46 678
e 46 690
e 46 699
e 46 721
e 46 722
e 46 724
e 46 788
e 46 813
e 46 817
e 46 833
e 46 840
e 46 844
e 46 845
e 46 857
e 46 876
e 46 892
e 46 903
e 46 924
e 46 925
e 46 930
e 46 939
e 46 973
e 46 975
e 46 979
e 46 996
e 47 59
e 47 76
e 47 97
e 47 100
e 47 101
e 47 119
e 47 149
e 47 154
e 47 158
e 47 165
e 47 173
e 47 192
e 47 195
e 47 205
e 47 206
e 47 212
e 47 221
e 47 227
e 47 244
e 47 265
e 47 275
e 47 307
e 47 308
e 47 323
e 47 328
e 47 335
e 47 343
e 47 385
e 47 388
e 47 400
e 47 403
e 47 404
e 47 417
e 47 418
e 47 419
e 47 425
e 47 427
e 47 438
e 47 440
e 47 448
e 47 466
e 47 468
e 47 471
e 47 479
e 47 490
e 47 493
e 47 494
e 47 497
e 47 505
e 47 518
e 47 545
e 47 563
e 47 573
e 47 574
e 47 584
e 47 587
e 47 621
e 47 639
e 47 673
e 47 680
e 47 681
e 47 688
e 47 690
e 47 691
e 47 701
e 47 715
e 47 716
e 47 717
e 47 721
e 47 728
e 47 739
e 47 758
e 47 763
e 47 771
e 47 783
e 47 809
e 47 811
e 47 813
e 47 815
e 47 825
e 47 830
e 47 835
e 47 836
e 47 848
e 47 849
e 47 855
e 47 860
e 47 867
e 47 872
e 47 884
e 47 904
e 47 925
e 47 937
e 47 939
e 47 959
e 47 990
e 47 992
e 48 51
e 48 59
e 48 60
e 48 84
e 48 87
e 48 98
e 48 106
e 48 123
e 48 124
e 48 141
e 48 144
e 48 149
e 48 157
e 48 170
e 48 176
e 48 177
e 48 179
e 48 193
e 48 198
e 48 231
e 48 239
e 48 247
e 48 249
e 48 252
e 48 266
e 48 291
e 48 295
e 48 299
e 48 310
e 48 313
e 48 332
e 48 361
e 48 364
e 48 380
e 48 384
e 48 394
e 48 413
e 48 437
e 48 463
e 48 496
e 48 500
e 48 503
e 48 506
e 48 508
e 48 509
e 48 528
e 48 534
e 48 557
e 48 559
e 48 570
e 48 576
e 48 585
e 48 591
e 48 599
e 48 600
e 48 633
e 48 636
e 48 654
e 48 659
e 48 671
e 48 675
e 48 682
e 48 684
e 48 694
e 48 701
e 48 711
e 48 729
e 48 753
e 48 770
e 48 776
e 48 780
e 48 787
e 48 792
e 48 798
e 48 816
e 48 817
e 48 831
e 48 832
e 48 842
e 48 852
e 48 853
e 48 875
e 48 885
e 48 889
e 48 900
e 48 909
e 48 911
e 48 930
e 48 937
e 48 942
e 48 945
e 48 962
e 48 965
e 48 966
e 48 968
e 48 973
e 48 977
e 48 980
e 48 984
e 48 985
e 48 997
e 49 51
e 49 53
e 49 66
e 49 81
e 49 85
e 49 86
e 49 90
e 49 91
e 49 94
e 49 110
e 49 120
e 49 132
e 49 134
e 49 150
e 49 163
e 49 202
e 49 203
e 49 209
e 49 214
e 49 217
e 49 221
e 49 224
e 49 228
e 49 255
e 49 260
e 49 262
e 49 265
e 49 269
e 49 271
e 49 278
e 49 279
e 49 307
e 49 328
e 49 342
e 49 352
e 49 355
e 49 360
e 49 364
e 49 366
e 49 403
e 49 422
e 49 425
e 49 433
e 49 441
e 49 452
e 49 455
e 49 470
e 49 473
e 49 480
e 49 494
e 49 497
e 49 520
e 49 526
e 49 531
e 49 550
e 49 572
e 49 575
e 49 582
e 49 590
e 49 592
e 49 595
e 49 603
e 49 613
e 49 626
e 49 648
e 49 649
e 49 667
e 49 676
e 49 678
e 49 679
e 49 693
e 49 703
e 49 714
e 49 728
e 49 731
e 49 739
e 49 771
e 49 776
e 49 777
e 49 793
e 49 797
e 49 802
e 49 814
e 49 821
e 49 852
e 49 859
e 49 869
e 49 870
e 49 882
e 49 886
e 49 890
e 49 894
e 49 911
e 49 915
e 49 918
e 49 934
e 49 959
e 49 969
e 49 972
e 49 981
e 49 989
e 50 61
e 50 65
e 50 71
e 50 84
e 50 87
e 50 94
e 50 103
e 50 110
e 50 121
e 50 128
e 50 130
e 50 132
e 50 134
e 50 143
e 50 144
e 50 150
e 50 160
e 50 168
e 50 180
e 50 185
e 50 204
e 50 214
e 50 216
e 50 220
e 50 229
e 50 236
e 50 243
e 50 246
e 50 255
e 50 262
e 50 277
e 50 279
e 50 282
e 50 297
e 50 304
e 50 314
e 50 315
e 50 338
e 50 342
e 50 343
e 50 363
e 50 372
e 50 373
e 50 416
e 50 419
e 50 420
e 50 425
e 50 441
e 50 473
e 50 481
e 50 493
e 50 513
e 50 516
e 50 530
e 50 532
e 50 533
e 50 539
e 50 546
e 50 550
e 50 551
e 50 559
e 50 570
e 50 583
e 50 597
e 50 605
e 50 613
e 50 620
e 50 630
e 50 632
e 50 662
e 50 674
e 50 692
e 50 695
e 50 697
e 50 698
e 50 712
e 50 719
e 50 727
e 50 735
e 50 736
e 50 749
e 50 772
e 50 784
e 50 788
e 50 791
e 50 795
e 50 805
e 50 808
e 50 821
e 50 823
e 50 826
e 50 830
e 50 843
e 50 847
e 50 851
e 50 855
e 50 858
e 50 861
e 50 895
e 50 903
e 50 910
e 50 939
e 50 944
e 50 947
e 50 962
e 50 963
e 50 980
e 50 986
e 50 999
e 50 1000
e 51 84
e 51 87
e 51 89
e 51 92
e 51 93
e 51 109
e 51 130
e 51 152
e 51 170
e 51 186
e 51 188
e 51 203
e 51 209
e 51 223
e 51 225
e 51 232
e 51 233
e 51 234
e 51 245
e 51 248
e 51 258
e 51 259
e 51 268
e 51 276
e 51 277
e 51 280
e 51 284
e 51 289
e 51 303
e 51 304
e 51 307
e 51 316
e 51 322
e 51 337
e 51 340
e 51 359
e 51 366
e 51 373
e 51 397
e 51 401
e 51 425
e 51 451
e 51 457
e 51 459
e 51 481
e 51 494
e 51 515
e 51 525
e 51 526
e 51 546
e 51 553
e 51 558
e 51 565
e 51 569
e 51 576
e 51 593
e 51 608
e 51 610
e 51 620
e 51 634
e 51 638
e 51 644
e 51 670
e 51 697
e 51 699
e 51 712
e 51 713
e 51 723
e 51 727
e 51 741
e 51 743
e 51 754
e 51 768
e 51 781
e 51 791
e 51 792
e 51 817
e 51 820
e 51 824
e 51 864
e 51 872
e 51 886
e 51 887
e 51 894
e 51 909
e 51 921
e 51 924
e 51 930
e 51 939
e 51 949
e 51 974
e 51 985
e 51 1000
e 52 56
e 52 60
e 52 66
e 52 70
e 52 76
e 52 97
e 52 98
e 52 116
e 52 123
e 52 124
e 52 126
e 52 134
e 52 136
e 52 149
e 52 152
e 52 183
e 52 201
e 52 214
e 52 224
e 52 233
e 52 237
e 52 238
e 52 243
e 52 245
e 52 257
e 52 261
e 52 279
e 52 298
e 52 300
e 52 308
e 52 310
e 52 313
e 52 339
e 52 345
e 52 357
e 52 361
e 52 363
e 52 381
e 52 417
e 52 422
e 52 424
e 52 436
e 52 440
e 52 449
e 52 450
e 52 455
e 52 458
e 52 462
e 52 477
e 52 480
e 52 493
e 52 494
e 52 505
e 52 531
e 52 539
e 52 542
e 52 544
e 52 554
e 52 559
e 52 570
e 52 576
e 52 600
e 52 601
e 52 605
e 52 610
e 52 616
e 52 630
e 52 631
e 52 638
e 52 643
e 52 647
e 52 654
e 52 658
e 52 663
e 52 665
e 52 678
e 52 683
e 52 685
e 52 695
e 52 702
e 52 710
e 52 717
e 52 720
e 52 725
e 52 731
e 52 744
e 52 763
e 52 766
e 52 780
e 52 787
e 52 788
e 52 789
e 52 799
e 52 802
e 52 829
e 52 834
e 52 851
e 52 857
e 52 861
e 52 865
e 52 872
e 52 877
e 52 879
e 52 890
e 52 903
e 52 906
e 52 908
e 52 909
e 52 913
e 52 915
e 52 934
e 52 938
e 52 944
e 52 946
e 52 952
e 52 959
e 52 964
e 52 966
e 52 984
e 52 996
e 52 997
e 53 55
e 53 76
e 53 80
e 53 95
e 53 106
e 53 112
e 53 118
e 53 153
e 53 179
e 53 185
e 53 207
e 53 210
e 53 215
e 53 221
e 53 224
e 53 227
e 53 235
e 53 241
e 53 253
e 53 294
e 53 304
e 53 305
e 53 306
e 53 328
e 53 333
e 53 334
e 53 339
e 53 348
e 53 360
e 53 365
e 53 368
e 53 373
e 53 374
e 53 376
e 53 378
e 53 396
e 53 401
e 53 404
e 53 406
e 53 430
e 53 433
e 53 451
e 53 457
e 53 459
e 53 500
e 53 503
e 53 511
e 53 517
e 53 521
e 53 538
e 53 539
e 53 549
e 53 562
e 53 593
e 53 598
e 53 599
e 53 603
e 53 617
e 53 627
e 53 649
e 53 685
e 53 686
e 53 706
e 53 727
e 53 737
e 53 745
e 53 746
e 53 752
e 53 785
e 53 787
e 53 796
e 53 809
e 53 816
e 53 830
e 53 840
e 53 852
e 53 860
e 53 882
e 53 896
e 53 900
e 53 908
e 53 909
e 53 932
e 53 935
e 53 936
e 53 950
e 53 960
e 53 963
e 53 974
e 53 975
e 53 977
e 53 988
e 53 998
e 53 1000
e 54 71
e 54 85
e 54 103
e 54 137
e 54 154
e 54 160
e 54 168
e 54 181
e 54 185
e 54 210
e 54 212
e 54 225
e 54 235
e 54 245
e 54 259
e 54 265
e 54 279
e 54 282
e 54 286
e 54 291
e 54 293
e 54 298
e 54 303
e 54 313
e 54 330
e 54 332
e 54 333
e 54 341
e 54 394
e 54 435
e 54 447
e 54 456
e 54 460
e 54 462
e 54 465
e 54 468
e 54 470
e 54 479
e 54 482
e 54 489
e 54 496
e 54 504
e 54 509
e 54 512
e 54 519
e 54 529
e 54 531
e 54 532
e 54 533
e 54 545
e 54 546
e 54 566
e 54 577
e 54 593
e 54 602
e 54 608
e 54 613
e 54 614
e 54 626
e 54 631
e 54 633
e 54 672
e 54 677
e 54 680
e 54 682
e 54 683
e 54 693
e 54 703
e 54 705
e 54 721
e 54 740
e 54 752
e 54 772
e 54 787
e 54 797
e 54 803
e 54 826
e 54 830
e 54 845
e 54 877
e 54 884
e 54 896
e 54 899
e 54 909
e 54 917
e 54 934
e 54 939
e 54 942
e 54 944
e 54 949
e 54 975
e 55 57
e 55 67
e 55 70
e 55 75
e 55 77
e 55 83
e 55 90
e 55 107
e 55 130
e 55 149
e 55 156
e 55 157
e 55 165
e 55 167
e 55 170
e 55 184
e 55 188
e 55 200
e 55 219
e 55 220
e 55 229
e 55 246
e 55 273
e 55 281
e 55 284
e 55 302
e 55 312
e 55 326
e 55 328
e 55 338
e 55 351
e 55 363
e 55 370
e 55 398
e 55 405
e 55 407
e 55 449
e 55 452
e 55 453
e 55 479
e 55 482
e 55 486
e 55 502
e 55 504
e 55 516
e 55 550
e 55 552
e 55 563
e 55 573
e 55 596
e 55 605
e 55 622
e 55 630
e 55 645
e 55 648
e 55 670
e 55 675
e 55 703
e 55 723
e 55 729
e 55 733
e 55 736
e 55 739
e 55 743
e 55 751
e 55 760
e 55 766
e 55 793
e 55 812
e 55 814
e 55 816
e 55 833
e 55 844
e 55 851
e 55 854
e 55 862
e 55 884
e 55 892
e 55 897
e 55 900
e 55 902
e 55 904
e 55 920
e 55 921
e 55 943
e 55 945
e 55 953
e 55 959
e 55 977
e 55 993
e 56 61
e 56 86
e 56 101
e 56 105
e 56 117
e 56 122
e 56 126
e 56 145
e 56 151
e 56 154
e 56 164
e 56 168
e 56 176
e 56 178
e 56 200
e 56 215
e 56 227
e 56 236
e 56 254
e 56 255
e 56 266
e 56 274
e 56 308
e 56 315
e 56 331
e 56 356
e 56 357
e 56 374
e 56 388
e 56 403
e 56 406
e 56 423
e 56 440
e 56 451
e 56 452
e 56 463
e 56 464
e 56 491
e 56 496
e 56 502
e 56 509
e 56 521
e 56 537
e 56 568
e 56 582
e 56 589
e 56 599
e 56 622
e 56 627
e 56 631
e 56 655
e 56 680
e 56 692
e 56 705
e 56 721
e 56 736
e 56 739
e 56 748
e 56 761
e 56 773
e 56 785
e 56 787
e 56 796
e 56 811
e 56 832
e 56 835
e 56 843
e 56 863
e 56 867
e 56 868
e 56 879
e 56 880
e 56 886
e 56 893
e 56 910
e 56 932
e 56 937
e 56 945
e 56 976
e 56 986
e 56 988
e 57 61
e 57 65
e 57 75
e 57 81
e 57 97
e 57 101
e 57 106
e 57 123
e 57 134
e 57 145
e 57 148
e 57 153
e 57 157
e 57 171
e 57 175
e 57 179
e 57 181
e 57 182
e 57 193
e 57 198
e 57 205
e 57 208
e 57 214
e 57 215
e 57 244
e 57 247
e 57 254
e 57 298
e 57 301
e 57 307
e 57 308
e 57 314
e 57 327
e 57 332
e 57 341
e 57 344
e 57 348
e 57 349
e 57 376
e 57 380
e 57 406
e 57 440
e 57 446
e 57 453
e 57 457
e 57 462
e 57 464
e 57 467
e 57 474
e 57 491
e 57 512
e 57 514
e 57 516
e 57 572
e 57 582
e 57 594
e 57 604
e 57 633
e 57 645
e 57 649
e 57 658
e 57 666
e 57 681
e 57 695
e 57 710
e 57 712
e 57 718
e 57 726
e 57 745
e 57 750
e 57 753
e 57 755
e 57 763
e 57 772
e 57 774
e 57 775
e 57 790
e 57 792
e 57 803
e 57 810
e 57 822
e 57 823
e 57 847
e 57 860
e 57 870
e 57 880
e 57 887
e 57 912
e 57 933
e 57 939
e 57 980
e 57 982
e 57 998
e 58 73
e 58 118
e 58 120
e 58 126
e 58 128
e 58 130
e 58 134
e 58 142
e 58 143
e 58 148
e 58 169
e 58 170
e 58 181
e 58 200
e 58 205
e 58 211
e 58 212
e 58 228
e 58 235
e 58 242
e 58 301
e 58 309
e 58 313
e 58 344
e 58 348
e 58 352
e 58 373
e 58 384
e 58 386
e 58 395
e 58 410
e 58 429
e 58 435
e 58 439
e 58 448
e 58 449
e 58 464
e 58 468
e 58 475
e 58 478
e 58 481
e 58 482
e 58 487
e 58 491
e 58 492
e 58 503
e 58 505
e 58 510
e 58 511
e 58 520
e 58 521
e 58 527
e 58 550
e 58 555
e 58 561
e 58 565
e 58 567
e 58 578
e 58 589
e 58 606
e 58 617
e 58 622
e 58 626
e 58 631
e 58 636
e 58 653
e 58 655
e 58 677
e 58 688
e 58 690
e 58 695
e 58 699
e 58 717
e 58 726
e 58 735
e 58 753
e 58 776
e 58 793
e 58 800
e 58 806
e 58 808
e 58 817
e 58 831
e 58 833
e 58 842
e 58 847
e 58 852
e 58 854
e 58 867
e 58 872
e 58 875
e 58 879
e 58 895
e 58 912
e 58 913
e 58 915
e 58 938
e 58 945
e 58 956
e 58 957
e 58 958
e 58 984
e 59 61
e 59 64
e 59 80
e 59 87
e 59 97
e 59 101
e 59 110
e 59 111
e 59 129
e 59 141
e 59 159
e 59 169
e 59 171
e 59 174
e 59 197
e 59 200
e 59 209
e 59 210
e 59 212
e 59 217
e 59 218
e 59 223
e 59 225
e 59 241
e 59 251
e 59 252
e 59 270
e 59 277
e 59 287
e 59 296
e 59 304
e 59 310
e 59 321
e 59 358
e 59 360
e 59 382
e 59 399
e 59 400
e 59 405
e 59 414
e 59 434
e 59 437
e 59 445
e 59 450
e 59 469
e 59 480
e 59 530
e 59 547
e 59 598
e 59 608
e 59 609
e 59 613
e 59 635
e 59 637
e 59 643
e 59 648
e 59 669
e 59 672
e 59 676
e 59 678
e 59 706
e 59 713
e 59 714
e 59 730
e 59 731
e 59 767
e 59 771
e 59 787
e 59 802
e 59 817
e 59 829
e 59 847
e 59 849
e 59 855
e 59 870
e 59 871
e 59 876
e 59 877
e 59 880
e 59 894
e 59 899
e 59 927
e 59 937
e 59 939
e 59 941
e 59 957
e 59 976
e 60 64
e 60 90
e 60 98
e 60 113
e 60 135
e 60 138
e 60 141
e 60 160
e 60 169
e 60 181
e 60 186
e 60 217
e 60 219
e 60 222
e 60 251
e 60 253
e 60 273
e 60 298
e 60 303
e 60 311
e 60 335
e 60 340
e 60 344
e 60 352
e 60 356
e 60 361
e 60 364
e 60 367
e 60 368
e 60 370
e 60 375
e 60 378
e 60 396
e 60 404
e 60 414
e 60 416
e 60 419
e 60 421
e 60 448
e 60 458
e 60 465
e 60 487
e 60 489
e 60 509
e 60 537
e 60 541
e 60 549
e 60 552
e 60 555
e 60 564
e 60 570
e 60 571
e 60 591
e 60 601
e 60 628
e 60 640
e 60 652
e 60 674
e 60 675
e 60 702
e 60 707
e 60 718
e 60 737
e 60 753
e 60 754
e 60 756
e 60 761
e 60 764
e 60 781
e 60 782
e 60 797
e 60 799
e 60 814
e 60 818
e 60 880
e 60 892
e 60 916
e 60 927
e 60 930
e 60 935
e 60 937
e 60 951
e 60 985
e 60 989
e 60 994
e 60 999
e 61 63
e 61 83
e 61 87
e 61 91
e 61 96
e 61 98
e 61 100
e 61 109
e 61 126
e 61 143
e 61 187
e 61 190
e 61 200
e 61 202
e 61 205
e 61 208
e 61 210
e 61 217
e 61 221
e 61 272
e 61 276
e 61 291
e 61 311
e 61 313
e 61 317
e 61 318
e 61 325
e 61 328
e 61 330
e 61 361
e 61 371
e 61 379
e 61 393
e 61 397
e 61 404
e 61 408
e 61 415
e 61 420
e 61 421
e 61 454
e 61 465
e 61 481
e 61 482
e 61 486
e 61 504
e 61 528
e 61 534
e 61 545
e 61 546
e 61 552
e 61 566
e 61 571
e 61 588
e 61 590
e 61 591
e 61 596
e 61 628
e 61 629
e 61 651
e 61 655
e 61 668
e 61 679
e 61 724
e 61 727
e 61 731
e 61 741
e 61 756
e 61 768
e 61 782
e 61 790
e 61 802
e 61 809
e 61 810
e 61 817
e 61 820
e 61 831
e 61 840
e 61 872
e 61 878
e 61 890
e 61 891
e 61 898
e 61 909
e 61 920
e 61 932
e 61 935
e 61 944
e 61 968
e 61 978
e 61 990
e 61 998
e 62 77
e 62 80
e 62 94
e 62 108
e 62 115
e 62 124
e 62 136
e 62 137
e 62 138
e 62 163
e 62 178
e 62 179
e 62 184
e 62 200
e 62 207
e 62 215
e 62 223
e 62 226
e 62 232
e 62 239
e 62 243
e 62 244
e 62 251
e 62 254
e 62 259
e 62 277
e 62 284
e 62 285
e 62 302
e 62 312
e 62 323
e 62 324
e 62 325
e 62 339
e 62 344
e 62 352
e 62 368
e 62 378
e 62 380
e 62 397
e 62 409
e 62 428
e 62 450
e 62 470
e 62 476
e 62 483
e 62 485
e 62 495
e 62 508
e 62 513
e 62 538
e 62 566
e 62 567
e 62 575
e 62 578
e 62 590
e 62 678
e 62 680
e 62 684
e 62 697
e 62 739
e 62 743
e 62 746
e 62 748
e 62 753
e 62 761
e 62 782
e 62 783
e 62 796
e 62 800
e 62 803
e 62 804
e 62 827
e 62 833
e 62 869
e 62 870
e 62 883
e 62 886
e 62 904
e 62 914
e 62 915
e 62 921
e 62 940
e 62 941
e 62 985
e 62 998
e 63 73
e 63 80
e 63 81
e 63 83
e 63 84
e 63 88
e 63 89
e 63 93
e 63 107
e 63 108
e 63 140
e 63 150
e 63 165
e 63 168
e 63 193
e 63 200
e 63 236
e 63 257
e 63 270
e 63 280
e 63 301
e 63 313
e 63 365
e 63 369
e 63 370
e 63 376
e 63 384
e 63 394
e 63 400
e 63 413
e 63 437
e 63 442
e 63 445
e 63 466
e 63 472
e 63 474
e 63 476
e 63 484
e 63 488
e 63 496
e 63 500
e 63 508
e 63 518
e 63 520
e 63 549
e 63 560
e 63 584
e 63 592
e 63 593
e 63 602
e 63 627
e 63 669
e 63 678
e 63 679
e 63 686
e 63 688
e 63 705
e 63 707
e 63 713
e 63 714
e 63 744
e 63 751
e 63 761
e 63 776
e 63 802
e 63 809
e 63 814
e 63 827
e 63 865
e 63 867
e 63 880
e 63 923
e 63 939
e 63 943
e 63 948
e 63 955
e 63 965
e 63 978
e 63 993
e 64 66
e 64 80
e 64 88
e 64 96
e 64 102
e 64 117
e 64 124
e 64 133
e 64 143
e 64 167
e 64 180
e 64 194
e 64 197
e 64 207
e 64 228
e 64 233
e 64 249
e 64 255
e 64 263
e 64 284
e 64 286
e 64 294
e 64 295
e 64 316
e 64 323
e 64 329
e 64 331
e 64 341
e 64 367
e 64 401
e 64 403
e 64 417
e 64 440
e 64 441
e 64 458
e 64 466
e 64 467
e 64 473
e 64 490
e 64 506
e 64 521
e 64 522
e 64 526
e 64 535
e 64 558
e 64 559
e 64 561
e 64 566
e 64 571
e 64 574
e 64 578
e 64 584
e 64 612
e 64 617
e 64 637
e 64 638
e 64 646
e 64 649
e 64 667
e 64 677
e 64 687
e 64 693
e 64 698
e 64 702
e 64 714
e 64 727
e 64 743
e 64 744
e 64 747
e 64 755
e 64 785
e 64 794
e 64 815
e 64 816
e 64 823
e 64 850
e 64 853
e 64 862
e 64 872
e 64 888
e 64 900
e 64 941
e 64 942
e 64 964
e 64 970
e 64 972
e 64 975
e 64 979
e 64 982
e 64 984
e 65 77
e 65 78
e 65 112
e 65 123
e 65 124
e 65 127
e 65 129
e 65 137
e 65 140
e 65 145
e 65 147
e 65 179
e 65 180
e 65 187
e 65 197
e 65 202
e 65 214
e 65 251
e 65 281
e 65 292
e 65 294
e 65 303
e 65 306
e 65 321
e 65 337
e 65 340
e 65 361
e 65 374
e 65 378
e 65 387
e 65 392
e 65 397
e 65 416
e 65 421
e 65 422
e 65 429
e 65 446
e 65 447
e 65 460
e 65 472
e 65 479
e 65 481
e 65 482
e 65 494
e 65 508
e 65 515
e 65 516
e 65 548
e 65 555
e 65 565
e 65 566
e 65 576
e 65 577
e 65 580
e 65 586
e 65 587
e 65 595
e 65 597
e 65 602
e 65 604
e 65 606
e 65 623
e 65 640
e 65 651
e 65 660
e 65 662
e 65 667
e 65 679
e 65 682
e 65 684
e 65 695
e 65 700
e 65 715
e 65 719
e 65 721
e 65 733
e 65 735
e 65 740
e 65 745
e 65 747
e 65 760
e 65 765
e 65 789
e 65 792
e 65 799
e 65 834
e 65 861
e 65 874
e 65 875
e 65 880
e 65 898
e 65 918
e 65 942
e 65 947
e 65 948
e 65 953
e 65 964
e 66 69
e 66 96
e 66 102
e 66 107
e 66 115
e 66 126
e 66 141
e 66 147
e 66 148
e 66 159
e 66 162
e 66 163
e 66 166
e 66 193
e 66 209
e 66 220
e 66 238
e 66 242
e 66 247
e 66 301
e 66 305
e 66 307
e 66 314
e 66 345
e 66 352
e 66 358
e 66 362
e 66 365
e 66 373
e 66 378
e 66 384
e 66 392
e 66 393
e 66 413
e 66 415
e 66 460
e 66 487
e 66 507
e 66 514
e 66 523
e 66 531
e 66 540
e 66 542
e 66 546
e 66 567
e 66 569
e 66 576
e 66 578
e 66 583
e 66 586
e 66 588
e 66 616
e 66 621
e 66 624
e 66 626
e 66 636
e 66 639
e 66 657
e 66 669
e 66 671
e 66 674
e 66 684
e 66 688
e 66 698
e 66 700
e 66 707
e 66 709
e 66 715
e 66 722
e 66 736
e 66 744
e 66 771
e 66 778
e 66 781
e 66 785
e 66 788
e 66 805
e 66 807
e 66 821
e 66 826
e 66 830
e 66 844
e 66 858
e 66 872
e 66 873
e 66 882
e 66 885
e 66 896
e 66 910
e 66 913
e 66 921
e 66 930
e 66 938
e 66 952
e 66 974
e 66 998
e 67 68
e 67 86
e 67 93
e 67 97
e 67 127
e 67 132
e 67 153
e 67 185
e 67 213
e 67 244
e 67 248
e 67 251
e 67 253
e 67 256
e 67 257
e 67 285
e 67 294
e 67 299
e 67 302
e 67 309
e 67 320
e 67 323
e 67 325
e 67 342
e 67 346
e 67 353
e 67 361
e 67 363
e 67 369
e 67 372
e 67 396
e 67 408
e 67 412
e 67 425
e 67 429
e 67 436
e 67 450
e 67 458
e 67 466
e 67 472
e 67 488
e 67 499
e 67 514
e 67 524
e 67 535
e 67 539
e 67 549
e 67 565
e 67 566
e 67 568
e 67 581
e 67 588
e 67 597
e 67 609
e 67 614
e 67 615
e 67 634
e 67 650
e 67 661
e 67 669
e 67 673
e 67 690
e 67 722
e 67 724
e 67 738
e 67 746
e 67 762
e 67 795
e 67 801
e 67 816
e 67 833
e 67 863
e 67 879
e 67 900
e 67 905
e 67 912
e 67 914
e 67 916
e 67 919
e 67 933
e 67 958
e 67 966
e 67 971
e 67 980
e 67 996
e 67 997
e 68 74
e 68 109
e 68 117
e 68 119
e 68 134
e 68 141
e 68 151
e 68 157
e 68 171
e 68 173
e 68 193
e 68 203
e 68 214
e 68 218
e 68 237
e 68 251
e 68 271
e 68 277
e 68 281
e 68 295
e 68 302
e 68 304
e 68 307
e 68 315
e 68 340
e 68 349
e 68 412
e 68 422
e 68 438
e 68 452
e 68 465
e 68 479
e 68 480
e 68 484
e 68 490
e 68 496
e 68 503
e 68 524
e 68 526
e 68 532
e 68 533
e 68 543
e 68 546
e 68 548
e 68 555
e 68 556
e 68 558
e 68 571
e 68 574
e 68 588
e 68 593
e 68 594
e 68 600
e 68 621
e 68 635
e 68 641
e 68 649
e 68 667
e 68 669
e 68 676
e 68 685
e 68 701
e 68 702
e 68 708
e 68 723
e 68 738
e 68 742
e 68 748
e 68 753
e 68 757
e 68 759
e 68 762
e 68 790
e 68 805
e 68 810
e 68 835
e 68 847
e 68 853
e 68 858
e 68 881
e 68 905
e 68 915
e 68 918
e 68 921
e 68 940
e 68 956
e 68 973
e 68 997
e 69 72
e 69 82
e 69 87
e 69 101
e 69 103
e 69 134
e 69 145
e 69 146
e 69 153
e 69 155
e 69 156
e 69 166
e 69 188
e 69 197
e 69 198
e 69 202
e 69 216
e 69 220
e 69 238
e 69 250
e 69 252
e 69 256
e 69 260
e 69 271
e 69 275
e 69 276
e 69 279
e 69 285
e 69 311
e 69 336
e 69 354
e 69 364
e 69 382
e 69 386
e 69 395
e 69 396
e 69 411
e 69 417
e 69 454
e 69 465
e 69 467
e 69 470
e 69 476
e 69 494
e 69 511
e 69 548
e 69 554
e 69 555
e 69 556
e 69 557
e 69 574
e 69 628
e 69 655
e 69 656
e 69 660
e 69 673
e 69 675
e 69 691
e 69 697
e 69 700
e 69 703
e 69 708
e 69 714
e 69 723
e 69 766
e 69 771
e 69 792
e 69 800
e 69 804
e 69 814
e 69 816
e 69 817
e 69 825
e 69 835
e 69 842
e 69 847
e 69 864
e 69 868
e 69 869
e 69 874
e 69 880
e 69 891
e 69 895
e 69 896
e 69 898
e 69 899
e 69 903
e 69 910
e 69 911
e 69 916
e 69 928
e 69 936
e 69 940
e 69 949
e 69 952
e 69 964
e 69 980
e 69 983
e 69 999
e 70 71
e 70 75
e 70 85
e 70 125
e 70 130
e 70 135
e 70 139
e 70 140
e 70 141
e 70 145
e 70 150
e 70 160
e 70 173
e 70 174
e 70 177
e 70 191
e 70 194
e 70 196
e 70 202
e 70 215
e 70 230
e 70 236
e 70 237
e 70 253
e 70 254
e 70 263
e 70 264
e 70 274
e 70 285
e 70 291
e 70 295
e 70 301
e 70 305
e 70 310
e 70 325
e 70 347
e 70 365
e 70 369
e 70 383
e 70 388
e 70 399
e 70 409
e 70 428
e 70 433
e 70 446
e 70 455
e 70 501
e 70 506
e 70 520
e 70 521
e 70 528
e 70 531
e 70 532
e 70 534
e 70 540
e 70 541
e 70 545
e 70 551
e 70 575
e 70 606
e 70 608
e 70 615
e 70 621
e 70 624
e 70 627
e 70 629
e 70 641
e 70 647
e 70 650
e 70 674
e 70 712
e 70 717
e 70 733
e 70 755
e 70 773
e 70 779
e 70 783
e 70 787
e 70 807
e 70 816
e 70 825
e 70 828
e 70 829
e 70 837
e 70 838
e 70 879
e 70 894
e 70 929
e 70 982
e 70 994
e 71 72
e 71 80
e 71 83
e 71 95
e 71 100
e 71 104
e 71 116
e 71 134
e 71 139
e 71 142
e 71 150
e 71 170
e 71 184
e 71 221
e 71 237
e 71 241
e 71 245
e 71 247
e 71 251
e 71 272
e 71 275
e 71 281
e 71 282
e 71 286
e 71 289
e 71 313
e 71 314
e 71 346
e 71 348
e 71 368
e 71 374
e 71 377
e 71 393
e 71 400
e 71 437
e 71 451
e 71 456
e 71 460
e 71 462
e 71 473
e 71 475
e 71 493
e 71 495
e 71 507
e 71 548
e 71 573
e 71 586
e 71 587
e 71 596
e 71 600
e 71 616
e 71 619
e 71 630
e 71 639
e 71 640
e 71 645
e 71 652
e 71 667
e 71 681
e 71 689
e 71 690
e 71 715
e 71 758
e 71 765
e 71 773
e 71 776
e 71 780
e 71 801
e 71 802
e 71 804
e 71 810
e 71 814
e 71 815
e 71 816
e 71 828
e 71 842
e 71 861
e 71 865
e 71 867
e 71 870
e 71 871
e 71 880
e 71 891
e 71 896
e 71 900
e 71 925
e 71 935
e 71 936
e 71 954
e 71 963
e 72 92
e 72 93
e 72 98
e 72 111
e 72 114
e 72 116
e 72 118
e 72 122
e 72 123
e 72 127
e 72 129
e 72 138
e 72 139
e 72 169
e 72 188
e 72 189
e 72 193
e 72 199
e 72 204
e 72 212
e 72 214
e 72 221
e 72 226
e 72 238
e 72 243
e 72 244
e 72 247
e 72 251
e 72 252
e 72 255
e 72 266
e 72 267
e 72 290
e 72 315
e 72 352
e 72 361
e 72 369
e 72 397
e 72 405
e 72 413
e 72 415
e 72 418
e 72 419
e 72 420
e 72 426
e 72 445
e 72 447
e 72 450
e 72 451
e 72 452
e 72 456
e 72 460
e 72 493
e 72 496
e 72 515
e 72 534
e 72 538
e 72 547
e 72 573
e 72 588
e 72 617
e 72 618
e 72 620
e 72 630
e 72 645
e 72 646
e 72 653
e 72 660
e 72 687
e 72 690
e 72 691
e 72 692
e 72 709
e 72 711
e 72 715
e 72 718
e 72 721
e 72 735
e 72 747
e 72 748
e 72 750
e 72 768
e 72 777
e 72 781
e 72 783
e 72 796
e 72 811
e 72 818
e 72 831
e 72 833
e 72 846
e 72 849
e 72 867
e 72 871
e 72 886
e 72 888
e 72 899
e 72 903
e 72 914
e 72 937
e 72 943
e 72 944
e 72 953
e 72 954
e 72 962
e 72 969
e 72 976
e 73 82
e 73 89
e 73 92
e 73 96
e 73 98
e 73 109
e 73 120
e 73 122
e 73 140
e 73 152
e 73 158
e 73 171
e 73 172
e 73 173
e 73 176
e 73 191
e 73 200
e 73 201
e 73 217
e 73 265
e 73 270
e 73 292
e 73 293
e 73 296
e 73 298
e 73 304
e 73 329
e 73 337
e 73 344
e 73 345
e 73 360
e 73 362
e 73 371
e 73 375
e 73 380
e 73 381
e 73 399
e 73 425
e 73 429
e 73 435
e 73 437
e 73 439
e 73 441
e 73 443
e 73 462
e 73 470
e 73 488
e 73 498
e 73 505
e 73 527
e 73 539
e 73 555
e 73 557
e 73 564
e 73 574
e 73 575
e 73 583
e 73 585
e 73 588
e 73 590
e 73 598
e 73 600
e 73 604
e 73 616
e 73 623
e 73 624
e 73 630
e 73 640
e 73 641
e 73 652
e 73 654
e 73 658
e 73 668
e 73 683
e 73 704
e 73 715
e 73 726
e 73 730
e 73 736
e 73 739
e 73 759
e 73 761
e 73 764
e 73 788
e 73 801
e 73 803
e 73 807
e 73 814
e 73 839
e 73 841
e 73 847
e 73 849
e 73 871
e 73 904
e 73 927
e 73 931
e 73 948
e 73 961
e 73 966
e 73 968
e 73 984
e 73 991
e 73 996
e 74 81
e 74 106
e 74 133
e 74 136
e 74 137
e 74 140
e 74 165
e 74 195
e 74 198
e 74 200
e 74 209
e 74 211
e 74 229
e 74 253
e 74 260
e 74 265
e 74 271
e 74 274
e 74 324
e 74 329
e 74 332
e 74 338
e 74 341
e 74 358
e 74 359
e 74 366
e 74 376
e 74 380
e 74 389
e 74 402
e 74 404
e 74 409
e 74 417
e 74 440
e 74 465
e 74 469
e 74 482
e 74 485
e 74 497
e 74 504
e 74 506
e 74 507
e 74 510
e 74 525
e 74 536
e 74 548
e 74 555
e 74 556
e 74 575
e 74 576
e 74 581
e 74 585
e 74 601
e 74 610
e 74 620
e 74 639
e 74 655
e 74 667
e 74 690
e 74 713
e 74 716
e 74 720
e 74 723
e 74 728
e 74 735
e 74 761
e 74 771
e 74 791
e 74 800
e 74 824
e 74 825
e 74 831
e 74 849
e 74 854
e 74 856
e 74 865
e 74 866
e 74 887
e 74 888
e 74 896
e 74 902
e 74 905
e 74 907
e 74 913
e 74 926
e 74 929
e 74 957
e 74 978
e 74 999
e 75 83
e 75 84
e 75 85
e 75 88
e 75 98
e 75 124
e 75 129
e 75 132
e 75 136
e 75 151
e 75 163
e 75 164
e 75 167
e 75 198
e 75 235
e 75 236
e 75 249
e 75 269
e 75 280
e 75 291
e 75 295
e 75 304
e 75 321
e 75 330
e 75 367
e 75 385
e 75 388
e 75 391
e 75 394
e 75 398
e 75 402
e 75 421
e 75 430
e 75 453
e 75 461
e 75 463
e 75 474
e 75 499
e 75 503
e 75 511
e 75 520
e 75 521
e 75 529
e 75 534
e 75 535
e 75 536
e 75 550
e 75 555
e 75 558
e 75 583
e 75 592
e 75 604
e 75 610
e 75 622
e 75 624
e 75 645
e 75 650
e 75 651
e 75 658
e 75 662
e 75 682
e 75 685
e 75 687
e 75 690
e 75 700
e 75 705
e 75 716
e 75 719
e 75 721
e 75 725
e 75 730
e 75 732
e 75 755
e 75 763
e 75 770
e 75 772
e 75 784
e 75 803
e 75 826
e 75 832
e 75 833
e 75 853
e 75 859
e 75 860
e 75 863
e 75 865
e 75 867
e 75 868
e 75 895
e 75 905
e 75 909
e 75 925
e 75 926
e 75 929
e 75 931
e 75 936
e 75 948
e 75 958
e 75 995
e 76 81
e 76 82
e 76 86
e 76 89
e 76 98
e 76 100
e 76 142
e 76 164
e 76 171
e 76 200
e 76 211
e 76 227
e 76 243
e 76 250
e 76 255
e 76 269
e 76 272
e 76 273
e 76 277
e 76 306
e 76 333
e 76 341
e 76 346
e 76 349
e 76 353
e 76 366
e 76 380
e 76 383
e 76 384
e 76 392
e 76 399
e 76 409
e 76 442
e 76 443
e 76 480
e 76 521
e 76 522
e 76 523
e 76 553
e 76 570
e 76 603
e 76 610
e 76 629
e 76 631
e 76 647
e 76 648
e 76 653
e 76 675
e 76 698
e 76 719
e 76 720
e 76 721
e 76 728
e 76 730
e 76 737
e 76 750
e 76 755
e 76 768
e 76 771
e 76 789
e 76 808
e 76 823
e 76 825
e 76 827
e 76 840
e 76 849
e 76 858
e 76 860
e 76 871
e 76 877
e 76 880
e 76 889
e 76 897
e 76 898
e 76 900
e 76 913
e 76 916
e 76 927
e 76 928
e 76 940
e 76 946
e 76 968
e 76 971
e 76 973
e 76 974
e 76 977
e 76 987
e 76 992
e 76 996
e 77 89
e 77 90
e 77 91
e 77 107
e 77 112
e 77 113
e 77 116
e 77 119
e 77 142
e 77 148
e 77 154
e 77 164
e 77 181
e 77 182
e 77 184
e 77 187
e 77 201
e 77 212
e 77 215
e 77 216
e 77 217
e 77 222
e 77 230
e 77 235
e 77 239
e 77 242
e 77 245
e 77 263
e 77 280
e 77 282
e 77 294
e 77 319
e 77 325
e 77 333
e 77 334
e 77 346
e 77 362
e 77 384
e 77 388
e 77 395
e 77 396
e 77 402
e 77 407
e 77 421
e 77 422
e 77 424
e 77 430
e 77 436
e 77 437
e 77 445
e 77 460
e 77 462
e 77 466
e 77 480
e 77 491
e 77 496
e 77 497
e 77 507
e 77 508
e 77 514
e 77 539
e 77 557
e 77 582
e 77 586
e 77 628
e 77 634
e 77 636
e 77 646
e 77 647
e 77 680
e 77 686
e 77 692
e 77 699
e 77 708
e 77 720
e 77 744
e 77 748
e 77 751
e 77 756
e 77 769
e 77 777
e 77 799
e 77 810
e 77 811
e 77 830
e 77 839
e 77 842
e 77 847
e 77 849
e 77 886
e 77 907
e 77 910
e 77 922
e 77 930
e 77 951
e 77 968
e 77 969
e 77 974
e 77 976
e 77 978
e 77 979
e 77 984
e 77 985
e 77 996
e 77 999
e 78 91
e 78 103
e 78 123
e 78 127
e 78 135
e 78 141
e 78 148
e 78 150
e 78 153
e 78 160
e 78 192
e 78 194
e 78 199
e 78 211
e 78 215
e 78 223
e 78 227
e 78 245
e 78 256
e 78 262
e 78 275
e 78 276
e 78 286
e 78 287
e 78 292
e 78 303
e 78 314
e 78 316
e 78 323
e 78 335
e 78 336
e 78 347
e 78 349
e 78 351
e 78 352
e 78 357
e 78 367
e 78 376
e 78 377
e 78 381
e 78 382
e 78 383
e 78 408
e 78 419
e 78 426
e 78 427
e 78 446
e 78 457
e 78 461
e 78 471
e 78 475
e 78 489
e 78 513
e 78 528
e 78 538
e 78 541
e 78 562
e 78 563
e 78 575
e 78 587
e 78 592
e 78 597
e 78 612
e 78 627
e 78 640
e 78 656
e 78 658
e 78 670
e 78 709
e 78 777
e 78 783
e 78 798
e 78 800
e 78 804
e 78 834
e 78 840
e 78 846
e 78 862
e 78 864
e 78 875
e 78 884
e 78 887
e 78 893
e 78 895
e 78 917
e 78 925
e 78 959
e 78 971
e 78 973
e 78 984
e 78 988
e 79 83
e 79 97
e 79 108
e 79 109
e 79 121
e 79 128
e 79 129
e 79 135
e 79 149
e 79 189
e 79 191
e 79 207
e 79 232
e 79 261
e 79 269
e 79 272
e 79 346
e 79 358
e 79 359
e 79 373
e 79 379
e 79 382
e 79 388
e 79 396
e 79 416
e 79 422
e 79 434
e 79 436
e 79 438
e 79 458
e 79 478
e 79 493
e 79 494
e 79 502
e 79 520
e 79 523
e 79 531
e 79 550
e 79 555
e 79 574
e 79 577
e 79 583
e 79 588
e 79 589
e 79 597
e 79 617
e 79 629
e 79 638
e 79 639
e 79 646
e 79 656
e 79 660
e 79 661
e 79 670
e 79 689
e 79 691
e 79 701
e 79 704
e 79 734
e 79 749
e 79 754
e 79 766
e 79 773
e 79 778
e 79 800
e 79 801
e 79 825
e 79 840
e 79 854
e 79 856
e 79 857
e 79 865
e 79 874
e 79 876
e 79 922
e 79 926
e 79 935
e 79 969
e 79 976
e 79 986
e 80 81
e 80 83
e 80 87
e 80 104
e 80 109
e 80 140
e 80 141
e 80 158
e 80 164
e 80 170
e 80 172
e 80 206
e 80 215
e 80 228
e 80 233
e 80 270
e 80 279
e 80 282
e 80 284
e 80 286
e 80 288
e 80 295
e 80 313
e 80 334
e 80 336
e 80 363
e 80 364
e 80 368
e 80 371
e 80 374
e 80 380
e 80 387
e 80 400
e 80 411
e 80 417
e 80 420
e 80 424
e 80 425
e 80 427
e 80 432
e 80 434
e 80 447
e 80 450
e 80 452
e 80 454
e 80 456
e 80 468
e 80 475
e 80 485
e 80 493
e 80 501
e 80 507
e 80 510
e 80 517
e 80 529
e 80 532
e 80 533
e 80 538
e 80 539
e 80 542
e 80 543
e 80 549
e 80 565
e 80 568
e 80 573
e 80 574
e 80 579
e 80 582
e 80 584
e 80 599
e 80 601
e 80 604
e 80 623
e 80 624
e 80 632
e 80 638
e 80 646
e 80 670
e 80 689
e 80 696
e 80 709
e 80 711
e 80 722
e 80 751
e 80 767
e 80 768
e 80 772
e 80 780
e 80 784
e 80 798
e 80 800
e 80 809
e 80 810
e 80 811
e 80 840
e 80 850
e 80 860
e 80 864
e 80 899
e 80 903
e 80 904
e 80 942
e 80 948
e 80 988
e 80 994
e 81 93
e 81 108
e 81 119
e 81 142
e 81 144
e 81 148
e 81 185
e 81 186
e 81 190
e 81 198
e 81 204
e 81 234
e 81 235
e 81 238
e 81 246
e 81 247
e 81 276
e 81 279
e 81 283
e 81 285
e 81 290
e 81 319
e 81 325
e 81 331
e 81 341
e 81 344
e 81 357
e 81 361
e 81 365
e 81 368
e 81 382
e 81 414
e 81 419
e 81 424
e 81 431
e 81 434
e 81 438
e 81 451
e 81 452
e 81 473
e 81 477
e 81 491
e 81 501
e 81 504
e 81 516
e 81 528
e 81 529
e 81 535
e 81 540
e 81 542
e 81 563
e 81 573
e 81 576
e 81 591
e 81 592
e 81 594
e 81 605
e 81 624
e 81 643
e 81 647
e 81 649
e 81 651
e 81 672
e 81 676
e 81 685
e 81 690
e 81 718
e 81 722
e 81 726
e 81 783
e 81 788
e 81 800
e 81 808
e 81 813
e 81 823
e 81 835
e 81 840
e 81 848
e 81 871
e 81 892
e 81 907
e 81 911
e 81 919
e 81 931
e 81 940
e 81 943
e 81 945
e 81 949
e 81 965
e 81 979
e 82 90
e 82 94
e 82 108
e 82 119
e 82 126
e 82 130
e 82 138
e 82 139
e 82 153
e 82 162
e 82 164
e 82 179
e 82 189
e 82 208
e 82 221
e 82 242
e 82 246
e 82 254
e 82 269
e 82 279
e 82 285
e 82 308
e 82 322
e 82 339
e 82 385
e 82 408
e 82 423
e 82 424
e 82 435
e 82 441
e 82 448
e 82 454
e 82 455
e 82 456
e 82 458
e 82 459
e 82 462
e 82 478
e 82 497
e 82 515
e 82 537
e 82 551
e 82 553
e 82 560
e 82 564
e 82 576
e 82 591
e 82 600
e 82 603
e 82 604
e 82 605
e 82 608
e 82 616
e 82 618
e 82 621
e 82 624
e 82 644
e 82 659
e 82 664
e 82 666
e 82 671
e 82 676
e 82 681
e 82 682
e 82 687
e 82 692
e 82 696
e 82 699
e 82 705
e 82 719
e 82 723
e 82 763
e 82 768
e 82 774
e 82 776
e 82 792
e 82 812
e 82 822
e 82 830
e 82 836
e 82 837
e 82 839
e 82 850
e 82 864
e 82 866
e 82 874
e 82 888
e 82 899
e 82 900
e 82 910
e 82 914
e 82 915
e 82 918
e 82 920
e 82 933
e 82 934
e 82 969
e 82 971
e 82 974
e 82 992
e 82 997
e 83 96
e 83 104
e 83 116
e 83 117
e 83 131
e 83 135
e 83 137
e 83 142
e 83 153
e 83 161
e 83 166
e 83 178
e 83 179
e 83 184
e 83 194
e 83 196
e 83 201
e 83 202
e 83 215
e 83 218
e 83 223
e 83 225
e 83 232
e 83 242
e 83 253
e 83 256
e 83 266
e 83 270
e 83 289
e 83 294
e 83 295
e 83 311
e 83 318
e 83 321
e 83 324
e 83 342
e 83 346
e 83 378
e 83 381
e 83 399
e 83 412
e 83 420
e 83 423
e 83 433
e 83 455
e 83 459
e 83 470
e 83 481
e 83 499
e 83 505
e 83 507
e 83 517
e 83 526
e 83 528
e 83 538
e 83 550
e 83 553
e 83 559
e 83 578
e 83 587
e 83 590
e 83 609
e 83 610
e 83 616
e 83 629
e 83 632
e 83 633
e 83 639
e 83 654
e 83 658
e 83 668
e 83 669
e 83 671
e 83 684
e 83 695
e 83 719
e 83 720
e 83 733
e 83 741
e 83 743
e 83 763
e 83 782
e 83 792
e 83 802
e 83 804
e 83 824
e 83 829
e 83 845
e 83 858
e 83 871
e 83 892
e 83 895
e 83 953
e 83 977
e 83 979
e 83 984
e 84 88
e 84 89
e 84 93
e 84 105
e 84 108
e 84 129
e 84 135
e 84 141
e 84 159
e 84 160
e 84 164
e 84 179
e 84 180
e 84 183
e 84 194
e 84 199
e 84 203
e 84 210
e 84 225
e 84 241
e 84 257
e 84 262
e 84 279
e 84 282
e 84 294
e 84 301
e 84 308
e 84 311
e 84 314
e 84 317
e 84 318
e 84 319
e 84 323
e 84 327
e 84 328
e 84 336
e 84 339
e 84 358
e 84 377
e 84 378
e 84 398
e 84 401
e 84 404
e 84 419
e 84 422
e 84 428
e 84 430
e 84 435
e 84 440
e 84 443
e 84 467
e 84 480
e 84 494
e 84 500
e 84 507
e 84 510
e 84 523
e 84 531
e 84 549
e 84 555
e 84 560
e 84 579
e 84 581
e 84 582
e 84 583
e 84 591
e 84 595
e 84 597
e 84 599
e 84 617
e 84 632
e 84 634
e 84 640
e 84 651
e 84 654
e 84 657
e 84 659
e 84 664
e 84 690
e 84 702
e 84 727
e 84 737
e 84 739
e 84 741
e 84 750
e 84 751
e 84 754
e 84 770
e 84 771
e 84 777
e 84 785
e 84 802
e 84 806
e 84 811
e 84 812
e 84 816
e 84 819
e 84 831
e 84 855
e 84 886
e 84 888
e 84 889
e 84 897
e 84 913
e 84 914
e 84 917
e 84 918
e 84 919
e 84 933
e 84 938
e 84 939
e 84 940
e 84 949
e 84 953
e 84 958
e 84 971
e 84 983
e 84 995
e 85 91
e 85 116
e 85 118
e 85 125
e 85 157
e 85 172
e 85 177
e 85 204
e 85 206
e 85 214
e 85 232
e 85 240
e 85 241
e 85 254
e 85 266
e 85 272
e 85 276
e 85 282
e 85 287
e 85 293
e 85 302
e 85 309
e 85 327
e 85 330
e 85 351
e 85 368
e 85 371
e 85 383
e 85 384
e 85 400
e 85 407
e 85 412
e 85 413
e 85 418
e 85 419
e 85 435
e 85 437
e 85 439
e 85 448
e 85 450
e 85 456
e 85 464
e 85 468
e 85 483
e 85 487
e 85 530
e 85 534
e 85 539
e 85 549
e 85 559
e 85 564
e 85 572
e 85 573
e 85 578
e 85 586
e 85 598
e 85 599
e 85 603
e 85 609
e 85 623
e 85 636
e 85 645
e 85 658
e 85 664
e 85 673
e 85 681
e 85 684
e 85 686
e 85 690
e 85 703
e 85 707
e 85 711
e 85 714
e 85 719
e 85 743
e 85 749
e 85 760
e 85 764
e 85 766
e 85 776
e 85 781
e 85 783
e 85 785
e 85 786
e 85 788
e 85 812
e 85 817
e 85 821
e 85 823
e 85 832
e 85 840
e 85 844
e 85 848
e 85 861
e 85 865
e 85 873
e 85 880
e 85 893
e 85 903
e 85 918
e 85 927
e 85 929
e 85 930
e 85 934
e 85 938
e 85 939
e 85 979
e 85 982
e 85 987
e 86 98
e 86 106
e 86 108
e 86 126
e 86 128
e 86 163
e 86 177
e 86 197
e 86 200
e 86 216
e 86 219
e 86 226
e 86 242
e 86 246
e 86 248
e 86 252
e 86 253
e 86 259
e 86 275
e 86 289
e 86 290
e 86 301
e 86 321
e 86 327
e 86 336
e 86 343
e 86 370
e 86 374
e 86 379
e 86 384
e 86 417
e 86 421
e 86 447
e 86 449
e 86 452
e 86 472
e 86 481
e 86 484
e 86 502
e 86 511
e 86 512
e 86 518
e 86 522
e 86 540
e 86 553
e 86 614
e 86 620
e 86 624
e 86 628
e 86 639
e 86 645
e 86 652
e 86 662
e 86 674
e 86 693
e 86 695
e 86 696
e 86 705
e 86 717
e 86 732
e 86 733
e 86 734
e 86 738
e 86 747
e 86 760
e 86 763
e 86 779
e 86 782
e 86 787
e 86 802
e 86 803
e 86 805
e 86 808
e 86 816
e 86 830
e 86 874
e 86 888
e 86 890
e 86 895
e 86 903
e 86 905
e 86 938
e 86 945
e 86 954
e 86 958
e 86 964
e 86 986
e 86 998
e 86 999
e 87 94
e 87 104
e 87 113
e 87 116
e 87 139
e 87 141
e 87 148
e 87 161
e 87 169
e 87 178
e 87 181
e 87 200
e 87 207
e 87 211
e 87 219
e 87 221
e 87 230
e 87 234
e 87 237
e 87 251
e 87 260
e 87 271
e 87 283
e 87 297
e 87 303
e 87 325
e 87 334
e 87 342
e 87 349
e 87 350
e 87 357
e 87 358
e 87 392
e 87 394
e 87 471
e 87 483
e 87 513
e 87 516
e 87 522
e 87 538
e 87 542
e 87 547
e 87 551
e 87 561
e 87 577
e 87 586
e 87 593
e 87 595
e 87 610
e 87 612
e 87 613
e 87 621
e 87 641
e 87 647
e 87 656
e 87 697
e 87 706
e 87 729
e 87 730
e 87 751
e 87 761
e 87 778
e 87 787
e 87 800
e 87 812
e 87 814
e 87 827
e 87 835
e 87 850
e 87 871
e 87 872
e 87 897
e 87 905
e 87 910
e 87 944
e 87 946
e 87 962
e 87 977
e 87 998
e 88 92
e 88 98
e 88 105
e 88 112
e 88 116
e 88 145
e 88 152
e 88 155
e 88 157
e 88 168
e 88 169
e 88 174
e 88 179
e 88 185
e 88 200
e 88 203
e 88 209
e 88 215
e 88 237
e 88 247
e 88 257
e 88 307
e 88 318
e 88 331
e 88 333
e 88 335
e 88 336
e 88 341
e 88 342
e 88 348
e 88 353
e 88 357
e 88 366
e 88 376
e 88 378
e 88 382
e 88 402
e 88 411
e 88 417
e 88 422
e 88 425
e 88 444
e 88 449
e 88 451
e 88 466
e 88 468
e 88 471
e 88 472
e 88 505
e 88 516
e 88 519
e 88 528
e 88 532
e 88 540
e 88 541
e 88 542
e 88 549
e 88 559
e 88 569
e 88 572
e 88 576
e 88 582
e 88 583
e 88 587
e 88 597
e 88 642
e 88 647
e 88 649
e 88 662
e 88 673
e 88 685
e 88 691
e 88 698
e 88 704
e 88 707
e 88 712
e 88 716
e 88 728
e 88 744
e 88 785
e 88 796
e 88 798
e 88 801
e 88 816
e 88 827
e 88 829
e 88 842
e 88 843
e 88 845
e 88 852
e 88 854
e 88 889
e 88 895
e 88 901
e 88 921
e 88 927
e 88 942
e 88 949
e 88 950
e 88 958
e 88 963
e 88 968
e 88 969
e 88 976
e 88 978
e 88 981
e 88 989
e 88 993
e 88 997
e 89 104
e 89 107
e 89 119
e 89 123
e 89 143
e 89 144
e 89 167
e 89 176
e 89 177
e 89 184
e 89 185
e 89 187
e 89 194
e 89 220
e 89 226
e 89 231
e 89 236
e 89 238
e 89 245
e 89 250
e 89 257
e 89 271
e 89 292
e 89 302
e 89 316
e 89 318
e 89 330
e 89 332
e 89 356
e 89 367
e 89 407
e 89 411
e 89 412
e 89 468
e 89 489
e 89 491
e 89 508
e 89 519
e 89 534
e 89 545
e 89 547
e 89 550
e 89 558
e 89 571
e 89 581
e 89 583
e 89 588
e 89 590
e 89 591
e 89 603
e 89 604
e 89 608
e 89 609
e 89 613
e 89 626
e 89 633
e 89 641
e 89 659
e 89 680
e 89 704
e 89 712
e 89 722
e 89 733
e 89 737
e 89 741
e 89 748
e 89 753
e 89 762
e 89 783
e 89 797
e 89 804
e 89 805
e 89 809
e 89 816
e 89 826
e 89 833
e 89 837
e 89 840
e 89 844
e 89 849
e 89 858
e 89 861
e 89 871
e 89 878
e 89 901
e 89 912
e 89 946
e 89 954
e 89 956
e 89 962
e 89 964
e 89 966
e 89 971
e 89 984
e 89 986
e 89 987
e 89 988
e 90 92
e 90 94
e 90 96
e 90 104
e 90 113
e 90 114
e 90 115
e 90 144
e 90 146
e 90 163
e 90 180
e 90 185
e 90 197
e 90 221
e 90 223
e 90 230
e 90 251
e 90 255
e 90 260
e 90 274
e 90 298
e 90 303
e 90 321
e 90 327
e 90 336
e 90 362
e 90 366
e 90 370
e 90 378
e 90 410
e 90 424
e 90 426
e 90 433
e 90 439
e 90 443
e 90 449
e 90 470
e 90 471
e 90 480
e 90 483
e 90 487
e 90 494
e 90 495
e 90 498
e 90 499
e 90 507
e 90 508
e 90 514
e 90 516
e 90 522
e 90 526
e 90 550
e 90 566
e 90 578
e 90 583
e 90 586
e 90 588
e 90 601
e 90 606
e 90 616
e 90 617
e 90 620
e 90 636
e 90 639
e 90 640
e 90 641
e 90 655
e 90 662
e 90 664
e 90 671
e 90 676
e 90 687
e 90 713
e 90 726
e 90 730
e 90 737
e 90 746
e 90 757
e 90 766
e 90 815
e 90 829
e 90 849
e 90 858
e 90 859
e 90 872
e 90 874
e 90 914
e 90 940
e 90 946
e 90 961
e 90 973
e 90 974
e 90 981
e 90 982
e 90 995
e 90 997
e 91 97
e 91 100
e 91 113
e 91 122
e 91 147
e 91 151
e 91 156
e 91 182
e 91 198
e 91 201
e 91 221
e 91 228
e 91 229
e 91 236
e 91 261
e 91 268
e 91 269
e 91 278
e 91 312
e 91 325
e 91 353
e 91 360
e 91 368
e 91 385
e 91 388
e 91 394
e 91 398
e 91 401
e 91 403
e 91 417
e 91 432
e 91 445
e 91 450
e 91 468
e 91 471
e 91 475
e 91 481
e 91 482
e 91 488
e 91 491
e 91 501
e 91 503
e 91 511
e 91 525
e 91 554
e 91 558
e 91 566
e 91 602
e 91 621
e 91 623
e 91 624
e 91 628
e 91 663
e 91 682
e 91 691
e 91 703
e 91 733
e 91 736
e 91 737
e 91 738
e 91 743
e 91 744
e 91 745
e 91 757
e 91 764
e 91 778
e 91 804
e 91 805
e 91 807
e 91 808
e 91 811
e 91 824
e 91 848
e 91 857
e 91 865
e 91 887
e 91 895
e 91 899
e 91 915
e 91 924
e 91 936
e 91 940
e 91 942
e 91 955
e 91 971
e 91 992
e 92 97
e 92 99
e 92 109
e 92 114
e 92 116
e 92 126
e 92 127
e 92 149
e 92 152
e 92 160
e 92 162
e 92 169
e 92 184
e 92 192
e 92 216
e 92 224
e 92 239
e 92 241
e 92 243
e 92 267
e 92 290
e 92 296
e 92 298
e 92 314
e 92 323
e 92 325
e 92 334
e 92 368
e 92 371
e 92 375
e 92 377
e 92 378
e 92 382
e 92 387
e 92 396
e 92 403
e 92 406
e 92 410
e 92 414
e 92 431
e 92 443
e 92 444
e 92 448
e 92 460
e 92 466
e 92 467
e 92 486
e 92 491
e 92 502
e 92 530
e 92 557
e 92 564
e 92 571
e 92 589
e 92 600
e 92 602
e 92 611
e 92 620
e 92 623
e 92 625
e 92 629
e 92 642
e 92 645
e 92 648
e 92 656
e 92 658
e 92 691
e 92 702
e 92 705
e 92 706
e 92 711
e 92 734
e 92 755
e 92 762
e 92 764
e 92 766
e 92 770
e 92 774
e 92 790
e 92 792
e 92 803
e 92 805
e 92 811
e 92 816
e 92 822
e 92 824
e 92 856
e 92 872
e 92 884
e 92 888
e 92 898
e 92 901
e 92 922
e 92 926
e 92 929
e 92 930
e 92 935
e 92 948
e 92 989
e 92 994
e 93 129
e 93 136
e 93 149
e 93 153
e 93 157
e 93 165
e 93 177
e 93 178
e 93 184
e 93 188
e 93 194
e 93 201
e 93 203
e 93 222
e 93 236
e 93 256
e 93 257
e 93 260
e 93 293
e 93 294
e 93 332
e 93 335
e 93 377
e 93 390
e 93 394
e 93 397
e 93 402
e 93 406
e 93 417
e 93 429
e 93 430
e 93 437
e 93 446
e 93 455
e 93 465
e 93 467
e 93 470
e 93 485
e 93 488
e 93 496
e 93 518
e 93 523
e 93 526
e 93 546
e 93 553
e 93 564
e 93 565
e 93 571
e 93 575
e 93 577
e 93 582
e 93 601
e 93 618
e 93 632
e 93 636
e 93 644
e 93 655
e 93 657
e 93 659
e 93 670
e 93 673
e 93 681
e 93 688
e 93 692
e 93 712
e 93 718
e 93 729
e 93 733
e 93 735
e 93 748
e 93 757
e 93 763
e 93 770
e 93 771
e 93 772
e 93 775
e 93 781
e 93 802
e 93 806
e 93 807
e 93 808
e 93 809
e 93 816
e 93 870
e 93 875
e 93 878
e 93 881
e 93 892
e 93 917
e 93 935
e 93 940
e 93 946
e 93 956
e 93 959
e 93 977
e 93 993
e 94 99
e 94 101
e 94 102
e 94 108
e 94 111
e 94 113
e 94 138
e 94 180
e 94 192
e 94 207
e 94 238
e 94 242
e 94 246
e 94 250
e 94 253
e 94 259
e 94 272
e 94 280
e 94 310
e 94 322
e 94 344
e 94 367
e 94 369
e 94 374
e 94 384
e 94 396
e 94 410
e 94 412
e 94 429
e 94 430
e 94 435
e 94 444
e 94 460
e 94 493
e 94 499
e 94 530
e 94 531
e 94 534
e 94 545
e 94 595
e 94 596
e 94 609
e 94 621
e 94 644
e 94 656
e 94 658
e 94 667
e 94 681
e 94 705
e 94 723
e 94 735
e 94 736
e 94 742
e 94 744
e 94 745
e 94 778
e 94 806
e 94 811
e 94 812
e 94 813
e 94 822
e 94 823
e 94 826
e 94 828
e 94 839
e 94 853
e 94 855
e 94 864
e 94 866
e 94 883
e 94 884
e 94 905
e 94 907
e 94 915
e 94 965
e 94 982
e 94 983
e 94 987
e 94 999
e 95 101
e 95 104
e 95 108
e 95 111
e 95 112
e 95 118
e 95 121
e 95 122
e 95 130
e 95 133
e 95 147
e 95 165
e 95 184
e 95 210
e 95 232
e 95 234
e 95 236
e 95 238
e 95 247
e 95 253
e 95 273
e 95 274
e 95 281
e 95 290
e 95 292
e 95 304
e 95 308
e 95 316
e 95 319
e 95 320
e 95 334
e 95 337
e 95 352
e 95 356
e 95 364
e 95 373
e 95 376
e 95 389
e 95 393
e 95 401
e 95 407
e 95 414
e 95 416
e 95 422
e 95 437
e 95 442
e 95 444
e 95 448
e 95 452
e 95 465
e 95 468
e 95 483
e 95 492
e 95 496
e 95 503
e 95 505
e 95 507
e 95 519
e 95 531
e 95 532
e 95 533
e 95 536
e 95 554
e 95 561
e 95 565
e 95 571
e 95 580
e 95 609
e 95 613
e 95 625
e 95 636
e 95 639
e 95 642
e 95 654
e 95 664
e 95 683
e 95 684
e 95 696
e 95 709
e 95 726
e 95 727
e 95 733
e 95 734
e 95 735
e 95 738
e 95 748
e 95 754
e 95 764
e 95 768
e 95 774
e 95 784
e 95 817
e 95 823
e 95 825
e 95 865
e 95 878
e 95 879
e 95 891
e 95 901
e 95 929
e 95 936
e 95 968
e 95 980
e 95 983
e 95 986
e 95 989
e 95 994
e 95 998
e 96 102
e 96 108
e 96 111
e 96 113
e 96 116
e 96 118
e 96 124
e 96 125
e 96 128
e 96 133
e 96 147
e 96 148
e 96 156
e 96 159
e 96 164
e 96 168
e 96 213
e 96 216
e 96 247
e 96 267
e 96 268
e 96 308
e 96 353
e 96 359
e 96 364
e 96 371
e 96 403
e 96 407
e 96 421
e 96 423
e 96 424
e 96 425
e 96 434
e 96 439
e 96 440
e 96 441
e 96 469
e 96 476
e 96 478
e 96 484
e 96 523
e 96 538
e 96 544
e 96 569
e 96 572
e 96 577
e 96 579
e 96 588
e 96 590
e 96 610
e 96 640
e 96 641
e 96 647
e 96 659
e 96 660
e 96 665
e 96 669
e 96 675
e 96 680
e 96 693
e 96 697
e 96 774
e 96 794
e 96 805
e 96 809
e 96 810
e 96 826
e 96 835
e 96 836
e 96 846
e 96 850
e 96 852
e 96 863
e 96 873
e 96 879
e 96 884
e 96 911
e 96 913
e 96 949
e 96 952
e 96 954
e 96 959
e 96 965
e 96 976
e 96 981
e 96 988
e 96 999
e 97 98
e 97 100
e 97 101
e 97 114
e 97 120
e 97 133
e 97 148
e 97 150
e 97 159
e 97 167
e 97 174
e 97 178
e 97 196
e 97 198
e 97 204
e 97 218
e 97 232
e 97 235
e 97 236
e 97 251
e 97 265
e 97 267
e 97 289
e 97 296
e 97 307
e 97 309
e 97 330
e 97 338
e 97 342
e 97 346
e 97 352
e 97 354
e 97 358
e 97 383
e 97 387
e 97 392
e 97 396
e 97 406
e 97 414
e 97 436
e 97 467
e 97 471
e 97 480
e 97 482
e 97 487
e 97 499
e 97 507
e 97 515
e 97 537
e 97 563
e 97 565
e 97 578
e 97 579
e 97 590
e 97 592
e 97 626
e 97 647
e 97 657
e 97 676
e 97 686
e 97 688
e 97 696
e 97 705
e 97 710
e 97 730
e 97 734
e 97 756
e 97 760
e 97 761
e 97 766
e 97 769
e 97 795
e 97 800
e 97 804
e 97 815
e 97 835
e 97 836
e 97 840
e 97 846
e 97 849
e 97 851
e 97 870
e 97 875
e 97 882
e 97 884
e 97 892
e 97 914
e 97 921
e 97 922
e 97 929
e 97 943
e 97 947
e 97 955
e 97 959
e 97 962
e 97 983
e 97 994
e 97 997
e 98 106
e 98 115
e 98 116
e 98 117
e 98 119
e 98 175
e 98 176
e 98 187
e 98 192
e 98 206
e 98 220
e 98 236
e 98 242
e 98 256
e 98 262
e 98 267
e 98 285
e 98 294
e 98 335
e 98 340
e 98 397
e 98 405
e 98 406
e 98 414
e 98 417
e 98 422
e 98 440
e 98 442
e 98 446
e 98 454
e 98 457
e 98 458
e 98 470
e 98 471
e 98 473
e 98 482
e 98 484
e 98 499
e 98 506
e 98 510
e 98 517
e 98 518
e 98 520
e 98 528
e 98 543
e 98 545
e 98 553
e 98 561
e 98 571
e 98 576
e 98 582
e 98 591
e 98 594
e 98 651
e 98 679
e 98 680
e 98 686
e 98 689
e 98 694
e 98 701
e 98 704
e 98 705
e 98 716
e 98 717
e 98 721
e 98 724
e 98 725
e 98 731
e 98 736
e 98 756
e 98 775
e 98 778
e 98 783
e 98 789
e 98 798
e 98 800
e 98 807
e 98 812
e 98 813
e 98 820
e 98 840
e 98 847
e 98 861
e 98 881
e 98 904
e 98 907
e 98 927
e 98 932
e 98 961
e 98 964
e 98 978
e 98 988
e 98 996
e 98 999
e 99 110
e 99 116
e 99 121
e 99 136
e 99 160
e 99 162
e 99 166
e 99 185
e 99 198
e 99 204
e 99 224
e 99 232
e 99 237
e 99 248
e 99 252
e 99 258
e 99 265
e 99 271
e 99 280
e 99 287
e 99 288
e 99 289
e 99 297
e 99 306
e 99 308
e 99 321
e 99 322
e 99 323
e 99 330
e 99 331
e 99 364
e 99 370
e 99 377
e 99 383
e 99 389
e 99 393
e 99 395
e 99 405
e 99 410
e 99 423
e 99 428
e 99 441
e 99 442
e 99 452
e 99 469
e 99 481
e 99 485
e 99 490
e 99 496
e 99 508
e 99 526
e 99 530
e 99 543
e 99 548
e 99 549
e 99 557
e 99 561
e 99 574
e 99 579
e 99 590
e 99 596
e 99 603
e 99 611
e 99 614
e 99 615
e 99 622
e 99 641
e 99 648
e 99 652
e 99 661
e 99 667
e 99 672
e 99 674
e 99 680
e 99 691
e 99 695
e 99 707
e 99 719
e 99 727
e 99 731
e 99 740
e 99 742
e 99 745
e 99 768
e 99 779
e 99 785
e 99 794
e 99 797
e 99 837
e 99 850
e 99 853
e 99 855
e 99 856
e 99 875
e 99 876
e 99 882
e 99 893
e 99 904
e 99 910
e 99 911
e 99 929
e 99 933
e 99 939
e 99 942
e 99 954
e 99 973
e 100 108
e 100 131
e 100 149
e 100 170
e 100 182
e 100 185
e 100 224
e 100 233
e 100 250
e 100 255
e 100 259
e 100 274
e 100 281
e 100 294
e 100 298
e 100 305
e 100 308
e 100 319
e 100 380
e 100 382
e 100 397
e 100 413
e 100 417
e 100 432
e 100 444
e 100 449
e 100 462
e 100 465
e 100 467
e 100 472
e 100 476
e 100 479
e 100 481
e 100 485
e 100 499
e 100 511
e 100 528
e 100 540
e 100 543
e 100 549
e 100 556
e 100 566
e 100 569
e 100 575
e 100 576
e 100 585
e 100 588
e 100 609
e 100 622
e 100 625
e 100 626
e 100 638
e 100 655
e 100 672
e 100 673
e 100 690
e 100 694
e 100 697
e 100 707
e 100 708
e 100 726
e 100 743
e 100 746
e 100 758
e 100 787
e 100 801
e 100 805
e 100 807
e 100 819
e 100 833
e 100 839
e 100 843
e 100 845
e 100 851
e 100 853
e 100 889
e 100 897
e 100 914
e 100 950
e 100 960
e 100 985
e 101 122
e 101 145
e 101 148
e 101 157
e 101 158
e 101 162
e 101 174
e 101 176
e 101 194
e 101 196
e 101 214
e 101 222
e 101 223
e 101 225
e 101 232
e 101 252
e 101 261
e 101 265
e 101 271
e 101 279
e 101 289
e 101 300
e 101 304
e 101 315
e 101 336
e 101 344
e 101 353
e 101 354
e 101 385
e 101 387
e 101 396
e 101 406
e 101 421
e 101 432
e 101 440
e 101 442
e 101 452
e 101 455
e 101 467
e 101 474
e 101 485
e 101 500
e 101 506
e 101 527
e 101 536
e 101 571
e 101 578
e 101 610
e 101 618
e 101 630
e 101 659
e 101 680
e 101 688
e 101 694
e 101 708
e 101 711
e 101 722
e 101 725
e 101 737
e 101 744
e 101 745
e 101 746
e 101 748
e 101 759
e 101 761
e 101 765
e 101 770
e 101 787
e 101 801
e 101 803
e 101 820
e 101 826
e 101 828
e 101 836
e 101 847
e 101 848
e 101 850
e 101 851
e 101 854
e 101 855
e 101 859
e 101 885
e 101 898
e 101 899
e 101 911
e 101 925
e 101 931
e 101 941
e 101 952
e 101 970
e 101 984
e 101 993
e 102 114
e 102 129
e 102 130
e 102 145
e 102 147
e 102 151
e 102 164
e 102 169
e 102 170
e 102 173
e 102 176
e 102 185
e 102 197
e 102 210
e 102 218
e 102 227
e 102 228
e 102 247
e 102 255
e 102 265
e 102 271
e 102 284
e 102 313
e 102 314
e 102 319
e 102 323
e 102 337
e 102 353
e 102 361
e 102 370
e 102 384
e 102 386
e 102 387
e 102 405
e 102 410
e 102 423
e 102 424
e 102 442
e 102 444
e 102 446
e 102 448
e 102 453
e 102 463
e 102 496
e 102 508
e 102 512
e 102 515
e 102 522
e 102 532
e 102 548
e 102 550
e 102 581
e 102 596
e 102 597
e 102 605
e 102 607
e 102 610
e 102 613
e 102 635
e 102 643
e 102 654
e 102 656
e 102 689
e 102 701
e 102 707
e 102 716
e 102 729
e 102 737
e 102 746
e 102 780
e 102 788
e 102 829
e 102 830
e 102 861
e 102 862
e 102 878
e 102 879
e 102 881
e 102 890
e 102 900
e 102 905
e 102 916
e 102 921
e 102 933
e 102 942
e 102 950
e 102 951
e 102 960
e 102 963
e 102 965
e 102 972
e 102 977
e 102 978
e 103 106
e 103 109
e 103 118
e 103 122
e 103 150
e 103 152
e 103 160
e 103 163
e 103 197
e 103 211
e 103 214
e 103 216
e 103 220
e 103 225
e 103 240
e 103 249
e 103 270
e 103 284
e 103 322
e 103 330
e 103 338
e 103 342
e 103 385
e 103 392
e 103 398
e 103 428
e 103 429
e 103 431
e 103 434
e 103 435
e 103 448
e 103 451
e 103 453
e 103 471
e 103 495
e 103 498
e 103 524
e 103 528
e 103 541
e 103 547
e 103 551
e 103 552
e 103 554
e 103 559
e 103 560
e 103 581
e 103 582
e 103 594
e 103 613
e 103 628
e 103 647
e 103 648
e 103 654
e 103 659
e 103 660
e 103 667
e 103 669
e 103 670
e 103 671
e 103 673
e 103 689
e 103 693
e 103 699
e 103 717
e 103 724
e 103 726
e 103 748
e 103 761
e 103 776
e 103 781
e 103 795
e 103 805
e 103 810
e 103 830
e 103 832
e 103 834
e 103 836
e 103 841
e 103 869
e 103 876
e 103 897
e 103 899
e 103 908
e 103 922
e 103 950
e 103 984
e 103 995
e 104 118
e 104 133
e 104 139
e 104 144
e 104 157
e 104 163
e 104 171
e 104 175
e 104 179
e 104 188
e 104 189
e 104 195
e 104 220
e 104 231
e 104 242
e 104 249
e 104 251
e 104 256
e 104 257
e 104 259
e 104 286
e 104 294
e 104 311
e 104 315
e 104 316
e 104 317
e 104 322
e 104 323
e 104 333
e 104 335
e 104 348
e 104 351
e 104 359
e 104 368
e 104 395
e 104 397
e 104 398
e 104 411
e 104 417
e 104 428
e 104 432
e 104 438
e 104 451
e 104 470
e 104 484
e 104 520
e 104 525
e 104 539
e 104 545
e 104 547
e 104 549
e 104 563
e 104 581
e 104 594
e 104 599
e 104 626
e 104 636
e 104 637
e 104 641
e 104 648
e 104 655
e 104 671
e 104 677
e 104 680
e 104 681
e 104 684
e 104 703
e 104 725
e 104 729
e 104 732
e 104 740
e 104 759
e 104 769
e 104 800
e 104 803
e 104 807
e 104 830
e 104 834
e 104 840
e 104 847
e 104 851
e 104 860
e 104 862
e 104 871
e 104 900
e 104 919
e 104 925
e 104 942
e 104 946
e 104 948
e 104 969
e 104 982
e 104 988
e 105 117
e 105 118
e 105 138
e 105 148
e 105 159
e 105 163
e 105 176
e 105 192
e 105 197
e 105 208
e 105 216
e 105 223
e 105 228
e 105 253
e 105 261
e 105 271
e 105 277
e 105 300
e 105 311
e 105 314
e 105 315
e 105 328
e 105 368
e 105 370
e 105 398
e 105 412
e 105 443
e 105 470
e 105 472
e 105 473
e 105 480
e 105 500
e 105 506
e 105 521
e 105 530
e 105 549
e 105 559
e 105 561
e 105 563
e 105 564
e 105 584
e 105 593
e 105 613
e 105 616
e 105 638
e 105 651
e 105 657
e 105 658
e 105 671
e 105 672
e 105 677
e 105 690
e 105 694
e 105 712
e 105 714
e 105 715
e 105 719
e 105 731
e 105 737
e 105 765
e 105 766
e 105 767
e 105 768
e 105 785
e 105 794
e 105 807
e 105 820
e 105 838
e 105 846
e 105 862
e 105 866
e 105 869
e 105 874
e 105 893
e 105 895
e 105 898
e 105 899
e 105 912
e 105 939
e 105 954
e 105 956
e 105 960
e 105 966
e 105 977
e 105 978
e 105 980
e 105 986
e 105 988
e 105 989
e 106 119
e 106 122
e 106 135
e 106 145
e 106 158
e 106 164
e 106 166
e 106 178
e 106 191
e 106 198
e 106 211
e 106 259
e 106 260
e 106 272
e 106 292
e 106 299
e 106 314
e 106 321
e 106 339
e 106 365
e 106 371
e 106 426
e 106 429
e 106 449
e 106 454
e 106 461
e 106 463
e 106 470
e 106 478
e 106 481
e 106 482
e 106 493
e 106 519
e 106 521
e 106 535
e 106 536
e 106 542
e 106 556
e 106 565
e 106 570
e 106 571
e 106 588
e 106 636
e 106 669
e 106 682
e 106 700
e 106 703
e 106 717
e 106 722
e 106 726
e 106 727
e 106 735
e 106 743
e 106 746
e 106 755
e 106 779
e 106 783
e 106 785
e 106 792
e 106 799
e 106 800
e 106 807
e 106 819
e 106 834
e 106 839
e 106 849
e 106 856
e 106 865
e 106 871
e 106 876
e 106 878
e 106 893
e 106 904
e 106 907
e 106 915
e 106 919
e 106 922
e 106 947
e 106 951
e 106 966
e 106 979
e 106 985
e 106 991
e 107 114
e 107 119
e 107 135
e 107 187
e 107 196
e 107 202
e 107 214
e 107 224
e 107 229
e 107 230
e 107 233
e 107 253
e 107 258
e 107 262
e 107 278
e 107 281
e 107 285
e 107 297
e 107 302
e 107 304
e 107 332
e 107 339
e 107 358
e 107 365
e 107 375
e 107 393
e 107 396
e 107 400
e 107 402
e 107 411
e 107 414
e 107 419
e 107 423
e 107 428
e 107 445
e 107 450
e 107 475
e 107 480
e 107 485
e 107 498
e 107 538
e 107 558
e 107 579
e 107 598
e 107 608
e 107 627
e 107 638
e 107 639
e 107 652
e 107 675
e 107 677
e 107 680
e 107 694
e 107 710
e 107 712
e 107 745
e 107 752
e 107 764
e 107 767
e 107 787
e 107 791
e 107 798
e 107 800
e 107 848
e 107 853
e 107 854
e 107 866
e 107 881
e 107 896
e 107 902
e 107 911
e 107 912
e 107 932
e 107 958
e 107 979
e 107 983
e 107 987
e 107 988
e 108 115
e 108 117
e 108 123
e 108 129
e 108 138
e 108 152
e 108 156
e 108 161
e 108 170
e 108 171
e 108 199
e 108 204
e 108 209
e 108 214
e 108 215
e 108 220
e 108 233
e 108 235
e 108 237
e 108 241
e 108 242
e 108 249
e 108 252
e 108 260
e 108 270
e 108 277
e 108 279
e 108 319
e 108 326
e 108 343
e 108 352
e 108 357
e 108 363
e 108 364
e 108 373
e 108 374
e 108 375
e 108 407
e 108 424
e 108 432
e 108 441
e 108 487
e 108 489
e 108 511
e 108 520
e 108 524
e 108 552
e 108 562
e 108 572
e 108 579
e 108 580
e 108 590
e 108 592
e 108 601
e 108 607
e 108 626
e 108 687
e 108 734
e 108 740
e 108 741
e 108 769
e 108 796
e 108 821
e 108 835
e 108 852
e 108 854
e 108 855
e 108 863
e 108 895
e 108 899
e 108 902
e 108 905
e 108 920
e 108 957
e 108 959
e 108 974
e 109 121
e 109 124
e 109 174
e 109 180
e 109 185
e 109 201
e 109 204
e 109 209
e 109 214
e 109 216
e 109 227
e 109 234
e 109 238
e 109 256
e 109 261
e 109 270
e 109 277
e 109 284
e 109 298
e 109 303
e 109 305
e 109 330
e 109 336
e 109 349
e 109 350
e 109 365
e 109 394
e 109 401
e 109 404
e 109 417
e 109 424
e 109 425
e 109 435
e 109 442
e 109 447
e 109 449
e 109 461
e 109 490
e 109 499
e 109 500
e 109 509
e 109 513
e 109 518
e 109 559
e 109 561
e 109 564
e 109 580
e 109 602
e 109 608
e 109 615
e 109 629
e 109 631
e 109 645
e 109 670
e 109 681
e 109 684
e 109 688
e 109 712
e 109 734
e 109 741
e 109 747
e 109 756
e 109 761
e 109 766
e 109 777
e 109 793
e 109 798
e 109 823
e 109 827
e 109 831
e 109 833
e 109 834
e 109 837
e 109 838
e 109 848
e 109 849
e 109 865
e 109 867
e 109 882
e 109 886
e 109 910
e 109 919
e 109 932
e 109 933
e 109 945
e 109 951
e 109 958
e 109 982
e 109 984
e 109 992
e 109 996
e 110 123
e 110 124
e 110 127
e 110 128
e 110 130
e 110 134
e 110 187
e 110 191
e 110 210
e 110 211
e 110 212
e 110 216
e 110 218
e 110 239
e 110 241
e 110 257
e 110 278
e 110 293
e 110 296
e 110 311
e 110 326
e 110 329
e 110 334
e 110 342
e 110 345
e 110 368
e 110 375
e 110 397
e 110 404
e 110 408
e 110 412
e 110 423
e 110 427
e 110 433
e 110 437
e 110 439
e 110 443
e 110 464
e 110 471
e 110 482
e 110 483
e 110 499
e 110 503
e 110 540
e 110 546
e 110 547
e 110 557
e 110 561
e 110 562
e 110 570
e 110 579
e 110 586
e 110 592
e 110 593
e 110 606
e 110 617
e 110 620
e 110 633
e 110 655
e 110 657
e 110 659
e 110 666
e 110 670
e 110 672
e 110 677
e 110 680
e 110 698
e 110 705
e 110 707
e 110 710
e 110 753
e 110 757
e 110 772
e 110 782
e 110 798
e 110 802
e 110 806
e 110 810
e 110 816
e 110 830
e 110 839
e 110 840
e 110 847
e 110 856
e 110 858
e 110 867
e 110 877
e 110 882
e 110 885
e 110 896
e 110 900
e 110 910
e 110 913
e 110 931
e 110 936
e 110 939
e 110 941
e 110 947
e 110 958
e 110 968
e 110 973
e 110 975
e 110 981
e 110 983
e 111 121
e 111 123
e 111 127
e 111 131
e 111 157
e 111 178
e 111 181
e 111 195
e 111 198
e 111 202
e 111 207
e 111 225
e 111 233
e 111 271
e 111 277
e 111 283
e 111 291
e 111 311
e 111 315
e 111 324
e 111 336
e 111 355
e 111 370
e 111 371
e 111 386
e 111 473
e 111 475
e 111 511
e 111 520
e 111 551
e 111 564
e 111 570
e 111 571
e 111 584
e 111 599
e 111 602
e 111 634
e 111 650
e 111 660
e 111 697
e 111 713
e 111 715
e 111 719
e 111 729
e 111 732
e 111 735
e 111 757
e 111 759
e 111 768
e 111 792
e 111 799
e 111 803
e 111 807
e 111 821
e 111 841
e 111 851
e 111 852
e 111 861
e 111 862
e 111 866
e 111 887
e 111 889
e 111 900
e 111 918
e 111 922
e 111 930
e 111 943
e 111 966
e 111 984
e 112 117
e 112 122
e 112 128
e 112 136
e 112 140
e 112 143
e 112 144
e 112 175
e 112 179
e 112 182
e 112 198
e 112 207
e 112 241
e 112 254
e 112 256
e 112 261
e 112 266
e 112 288
e 112 290
e 112 297
e 112 308
e 112 316
e 112 326
e 112 349
e 112 384
e 112 392
e 112 394
e 112 399
e 112 403
e 112 419
e 112 425
e 112 440
e 112 443
e 112 445
e 112 447
e 112 457
e 112 463
e 112 478
e 112 495
e 112 496
e 112 507
e 112 519
e 112 523
e 112 527
e 112 532
e 112 547
e 112 557
e 112 565
e 112 575
e 112 583
e 112 602
e 112 605
e 112 608
e 112 629
e 112 651
e 112 662
e 112 668
e 112 681
e 112 698
e 112 701
e 112 705
e 112 708
e 112 722
e 112 729
e 112 748
e 112 777
e 112 785
e 112 795
e 112 796
e 112 797
e 112 804
e 112 806
e 112 810
e 112 820
e 112 836
e 112 846
e 112 867
e 112 872
e 112 896
e 112 901
e 112 913
e 112 931
e 112 932
e 112 933
e 112 936
e 112 945
e 112 961
e 112 969
e 112 982
e 113 116
e 113 133
e 113 137
e 113 138
e 113 162
e 113 164
e 113 192
e 113 200
e 113 203
e 113 223
e 113 239
e 113 240
e 113 244
e 113 251
e 113 253
e 113 264
e 113 293
e 113 295
e 113 296
e 113 310
e 113 321
e 113 324
e 113 333
e 113 337
e 113 345
e 113 359
e 113 375
e 113 376
e 113 407
e 113 409
e 113 410
e 113 416
e 113 418
e 113 429
e 113 436
e 113 439
e 113 451
e 113 458
e 113 460
e 113 473
e 113 479
e 113 481
e 113 484
e 113 488
e 113 490
e 113 499
e 113 506
e 113 526
e 113 530
e 113 554
e 113 555
e 113 558
e 113 564
e 113 569
e 113 575
e 113 586
e 113 592
e 113 594
e 113 595
e 113 598
e 113 610
e 113 619
e 113 627
e 113 639
e 113 649
e 113 656
e 113 679
e 113 680
e 113 681
e 113 697
e 113 701
e 113 705
e 113 706
e 113 708
e 113 720
e 113 735
e 113 758
e 113 762
e 113 789
e 113 832
e 113 835
e 113 840
e 113 849
e 113 859
e 113 863
e 113 880
e 113 883
e 113 885
e 113 905
e 113 907
e 113 922
e 113 923
e 113 942
e 113 959
e 113 976
e 113 995
e 114 115
e 114 131
e 114 142
e 114 146
e 114 152
e 114 156
e 114 157
e 114 166
e 114 172
e 114 191
e 114 194
e 114 236
e 114 251
e 114 252
e 114 255
e 114 266
e 114 271
e 114 292
e 114 313
e 114 317
e 114 331
e 114 332
e 114 353
e 114 366
e 114 378
e 114 401
e 114 436
e 114 441
e 114 449
e 114 456
e 114 478
e 114 485
e 114 518
e 114 525
e 114 526
e 114 538
e 114 547
e 114 548
e 114 549
e 114 554
e 114 556
e 114 561
e 114 581
e 114 583
e 114 588
e 114 605
e 114 616
e 114 618
e 114 619
e 114 622
e 114 636
e 114 675
e 114 689
e 114 691
e 114 702
e 114 713
e 114 724
e 114 735
e 114 739
e 114 750
e 114 763
e 114 768
e 114 780
e 114 782
e 114 818
e 114 820
e 114 837
e 114 853
e 114 866
e 114 875
e 114 892
e 114 902
e 114 932
e 114 937
e 114 948
e 114 962
e 114 963
e 114 964
e 114 966
e 114 968
e 114 969
e 114 977
e 114 980
e 114 996
e 115 116
e 115 118
e 115 149
e 115 151
e 115 157
e 115 173
e 115 178
e 115 181
e 115 209
e 115 222
e 115 239
e 115 253
e 115 258
e 115 262
e 115 269
e 115 273
e 115 290
e 115 292
e 115 293
e 115 300
e 115 307
e 115 310
e 115 312
e 115 316
e 115 333
e 115 337
e 115 338
e 115 355
e 115 357
e 115 366
e 115 372
e 115 378
e 115 381
e 115 396
e 115 398
e 115 423
e 115 431
e 115 447
e 115 449
e 115 472
e 115 478
e 115 498
e 115 503
e 115 510
e 115 513
e 115 525
e 115 538
e 115 550
e 115 551
e 115 563
e 115 566
e 115 589
e 115 607
e 115 615
e 115 622
e 115 672
e 115 683
e 115 685
e 115 689
e 115 692
e 115 708
e 115 719
e 115 725
e 115 729
e 115 731
e 115 750
e 115 767
e 115 769
e 115 780
e 115 785
e 115 786
e 115 792
e 115 796
e 115 811
e 115 812
e 115 836
e 115 839
e 115 846
e 115 862
e 115 868
e 115 869
e 115 874
e 115 879
e 115 896
e 115 925
e 115 937
e 115 940
e 115 952
e 115 965
e 115 966
e 115 969
e 115 971
e 115 982
e 115 993
e 116 118
e 116 131
e 116 132
e 116 134
e 116 136
e 116 138
e 116 151
e 116 163
e 116 165
e 116 176
e 116 189
e 116 191
e 116 206
e 116 228
e 116 229
e 116 230
e 116 233
e 116 237
e 116 247
e 116 258
e 116 274
e 116 277
e 116 285
e 116 301
e 116 322
e 116 329
e 116 333
e 116 339
e 116 343
e 116 347
e 116 351
e 116 353
e 116 360
e 116 368
e 116 374
e 116 379
e 116 380
e 116 393
e 116 399
e 116 403
e 116 411
e 116 415
e 116 424
e 116 437
e 116 438
e 116 452
e 116 460
e 116 462
e 116 472
e 116 475
e 116 487
e 116 505
e 116 518
e 116 527
e 116 536
e 116 549
e 116 551
e 116 565
e 116 569
e 116 604
e 116 609
e 116 620
e 116 626
e 116 632
e 116 649
e 116 666
e 116 668
e 116 678
e 116 679
e 116 683
e 116 684
e 116 688
e 116 708
e 116 715
e 116 721
e 116 722
e 116 724
e 116 747
e 116 750
e 116 757
e 116 769
e 116 783
e 116 784
e 116 792
e 116 810
e 116 822
e 116 832
e 116 835
e 116 838
e 116 848
e 116 883
e 116 914
e 116 925
e 116 938
e 116 945
e 116 952
e 116 953
e 116 973
e 116 977
e 116 985
e 116 992
e 116 997
e 117 119
e 117 127
e 117 138
e 117 145
e 117 153
e 117 165
e 117 201
e 117 207
e 117 208
e 117 225
e 117 229
e 117 238
e 117 241
e 117 245
e 117 269
e 117 273
e 117 274
e 117 280
e 117 285
e 117 308
e 117 313
e 117 334
e 117 363
e 117 370
e 117 386
e 117 393
e 117 400
e 117 411
e 117 420
e 117 430
e 117 435
e 117 447
e 117 449
e 117 466
e 117 472
e 117 506
e 117 535
e 117 542
e 117 557
e 117 566
e 117 568
e 117 582
e 117 608
e 117 631
e 117 632
e 117 640
e 117 658
e 117 663
e 117 668
e 117 681
e 117 688
e 117 703
e 117 719
e 117 722
e 117 724
e 117 725
e 117 744
e 117 755
e 117 756
e 117 780
e 117 781
e 117 787
e 117 792
e 117 796
e 117 807
e 117 812
e 117 826
e 117 871
e 117 875
e 117 890
e 117 894
e 117 895
e 117 913
e 117 919
e 117 922
e 117 939
e 117 959
e 117 992
e 117 999
e 118 126
e 118 131
e 118 140
e 118 142
e 118 158
e 118 159
e 118 162
e 118 164
e 118 166
e 118 170
e 118 214
e 118 238
e 118 244
e 118 251
e 118 260
e 118 264
e 118 266
e 118 276
e 118 279
e 118 280
e 118 281
e 118 302
e 118 309
e 118 322
e 118 329
e 118 338
e 118 359
e 118 362
e 118 368
e 118 369
e 118 376
e 118 379
e 118 380
e 118 383
e 118 386
e 118 397
e 118 408
e 118 414
e 118 417
e 118 471
e 118 481
e 118 483
e 118 504
e 118 520
e 118 521
e 118 522
e 118 523
e 118 530
e 118 531
e 118 532
e 118 533
e 118 557
e 118 565
e 118 572
e 118 585
e 118 586
e 118 610
e 118 628
e 118 631
e 118 633
e 118 634
e 118 635
e 118 638
e 118 642
e 118 655
e 118 666
e 118 689
e 118 692
e 118 698
e 118 714
e 118 716
e 118 719
e 118 755
e 118 763
e 118 772
e 118 789
e 118 793
e 118 802
e 118 812
e 118 831
e 118 880
e 118 884
e 118 887
e 118 905
e 118 911
e 118 914
e 118 915
e 118 922
e 118 925
e 118 949
e 118 952
e 118 962
e 118 963
e 118 965
e 118 991
e 119 122
e 119 128
e 119 134
e 119 139
e 119 145
e 119 156
e 119 158
e 119 163
e 119 164
e 119 166
e 119 169
e 119 171
e 119 178
e 119 185
e 119 206
e 119 207
e 119 255
e 119 265
e 119 289
e 119 291
e 119 301
e 119 318
e 119 321
e 119 325
e 119 334
e 119 352
e 119 369
e 119 371
e 119 375
e 119 390
e 119 394
e 119 397
e 119 424
e 119 425
e 119 432
e 119 450
e 119 457
e 119 471
e 119 474
e 119 476
e 119 490
e 119 497
e 119 514
e 119 517
e 119 521
e 119 524
e 119 529
e 119 531
e 119 546
e 119 547
e 119 548
e 119 554
e 119 581
e 119 592
e 119 593
e 119 621
e 119 631
e 119 648
e 119 652
e 119 654
e 119 661
e 119 667
e 119 670
e 119 678
e 119 680
e 119 684
e 119 702
e 119 714
e 119 718
e 119 719
e 119 735
e 119 752
e 119 753
e 119 758
e 119 759
e 119 778
e 119 784
e 119 796
e 119 806
e 119 813
e 119 824
e 119 832
e 119 838
e 119 859
e 119 890
e 119 895
e 119 906
e 119 907
e 119 928
e 119 933
e 119 950
e 119 951
e 119 958
e 119 963
e 119 966
e 119 972
e 119 988
e 119 989
e 119 997
e 120 124
e 120 127
e 120 136
e 120 141
e 120 142
e 120 154
e 120 158
e 120 169
e 120 175
e 120 178
e 120 187
e 120 204
e 120 227
e 120 235
e 120 243
e 120 247
e 120 256
e 120 274
e 120 313
e 120 321
e 120 337
e 120 343
e 120 350
e 120 362
e 120 375
e 120 380
e 120 385
e 120 425
e 120 439
e 120 444
e 120 451
e 120 462
e 120 471
e 120 480
e 120 489
e 120 500
e 120 513
e 120 539
e 120 546
e 120 549
e 120 554
e 120 558
e 120 567
e 120 570
e 120 574
e 120 590
e 120 608
e 120 613
e 120 614
e 120 619
e 120 632
e 120 646
e 120 670
e 120 678
e 120 688
e 120 694
e 120 697
e 120 705
e 120 715
e 120 730
e 120 733
e 120 754
e 120 772
e 120 773
e 120 784
e 120 785
e 120 821
e 120 826
e 120 828
e 120 829
e 120 834
e 120 856
e 120 863
e 120 878
e 120 889
e 120 894
e 120 903
e 120 913
e 120 915
e 120 938
e 120 939
e 120 953
e 120 960
e 120 991
e 120 998
e 120 1000
e 121 161
e 121 188
e 121 192
e 121 199
e 121 204
e 121 205
e 121 208
e 121 223
e 121 225
e 121 234
e 121 267
e 121 273
e 121 294
e 121 307
e 121 316
e 121 321
e 121 336
e 121 341
e 121 363
e 121 364
e 121 366
e 121 374
e 121 385
e 121 392
e 121 395
e 121 401
e 121 411
e 121 433
e 121 449
e 121 462
e 121 500
e 121 504
e 121 510
e 121 513
e 121 523
e 121 527
e 121 562
e 121 573
e 121 580
e 121 591
e 121 616
e 121 619
e 121 625
e 121 626
e 121 638
e 121 639
e 121 649
e 121 661
e 121 668
e 121 671
e 121 672
e 121 680
e 121 698
e 121 713
e 121 720
e 121 731
e 121 738
e 121 739
e 121 750
e 121 792
e 121 793
e 121 795
e 121 802
e 121 807
e 121 828
e 121 835
e 121 837
e 121 843
e 121 847
e 121 852
e 121 859
e 121 875
e 121 881
e 121 904
e 121 907
e 121 922
e 121 923
e 121 924
e 121 938
e 121 939
e 121 945
e 121 956
e 121 963
e 121 965
e 121 980
e 121 987
e 122 129
e 122 152
e 122 156
e 122 169
e 122 189
e 122 211
e 122 216
e 122 226
e 122 236
e 122 245
e 122 254
e 122 255
e 122 264
e 122 270
e 122 274
e 122 277
e 122 279
e 122 287
e 122 302
e 122 313
e 122 314
e 122 318
e 122 351
e 122 366
e 122 370
e 122 377
e 122 381
e 122 424
e 122 428
e 122 429
e 122 436
e 122 443
e 122 448
e 122 458
e 122 463
e 122 466
e 122 469
e 122 483
e 122 484
e 122 494
e 122 516
e 122 539
e 122 540
e 122 541
e 122 555
e 122 568
e 122 569
e 122 580
e 122 581
e 122 604
e 122 622
e 122 624
e 122 632
e 122 646
e 122 648
e 122 663
e 122 673
e 122 674
e 122 680
e 122 687
e 122 696
e 122 714
e 122 756
e 122 761
e 122 766
e 122 768
e 122 773
e 122 786
e 122 788
e 122 790
e 122 795
e 122 799
e 122 801
e 122 824
e 122 837
e 122 846
e 122 849
e 122 850
e 122 855
e 122 874
e 122 880
e 122 894
e 122 904
e 122 910
e 122 950
e 122 953
e 122 954
e 122 962
e 122 967
e 122 979
e 122 982
e 123 153
e 123 160
e 123 176
e 123 190
e 123 206
e 123 209
e 123 211
e 123 214
e 123 215
e 123 220
e 123 224
e 123 231
e 123 232
e 123 254
e 123 269
e 123 311
e 123 323
e 123 334
e 123 342
e 123 343
e 123 348
e 123 349
e 123 373
e 123 375
e 123 385
e 123 387
e 123 393
e 123 421
e 123 446
e 123 454
e 123 457
e 123 483
e 123 504
e 123 531
e 123 534
e 123 545
e 123 547
e 123 550
e 123 556
e 123 557
e 123 561
e 123 577
e 123 581
e 123 582
e 123 588
e 123 589
e 123 606
e 123 614
e 123 623
e 123 633
e 123 636
e 123 643
e 123 653
e 123 657
e 123 663
e 123 679
e 123 716
e 123 721
e 123 724
e 123 739
e 123 752
e 123 760
e 123 783
e 123 790
e 123 812
e 123 815
e 123 833
e 123 839
e 123 844
e 123 847
e 123 867
e 123 869
e 123 881
e 123 888
e 123 896
e 123 902
e 123 908
e 123 918
e 123 923
e 123 925
e 123 926
e 123 935
e 123 959
e 123 963
e 123 985
e 123 990
e 123 1000
e 124 132
e 124 148
e 124 149
e 124 159
e 124 170
e 124 176
e 124 178
e 124 179
e 124 192
e 124 193
e 124 205
e 124 207
e 124 214
e 124 224
e 124 227
e 124 239
e 124 250
e 124 251
e 124 256
e 124 261
e 124 283
e 124 288
e 124 291
e 124 311
e 124 321
e 124 341
e 124 342
e 124 355
e 124 377
e 124 408
e 124 419
e 124 444
e 124 447
e 124 450
e 124 513
e 124 523
e 124 545
e 124 553
e 124 573
e 124 584
e 124 590
e 124 592
e 124 599
e 124 600
e 124 615
e 124 618
e 124 635
e 124 637
e 124 643
e 124 648
e 124 650
e 124 653
e 124 656
e 124 664
e 124 674
e 124 698
e 124 710
e 124 714
e 124 732
e 124 779
e 124 797
e 124 817
e 124 828
e 124 836
e 124 839
e 124 840
e 124 845
e 124 858
e 124 859
e 124 860
e 124 869
e 124 872
e 124 879
e 124 881
e 124 892
e 124 905
e 124 917
e 124 934
e 124 938
e 124 957
e 124 959
e 124 964
e 124 968
e 124 970
e 124 973
e 124 979
e 124 982
e 124 988
e 124 997
e 125 127
e 125 129
e 125 131
e 125 136
e 125 150
e 125 154
e 125 155
e 125 169
e 125 180
e 125 200
e 125 205
e 125 217
e 125 226
e 125 237
e 125 281
e 125 318
e 125 323
e 125 338
e 125 350
e 125 355
e 125 373
e 125 377
e 125 382
e 125 390
e 125 406
e 125 410
e 125 415
e 125 441
e 125 455
e 125 463
e 125 465
e 125 483
e 125 501
e 125 511
e 125 532
e 125 534
e 125 537
e 125 569
e 125 582
e 125 588
e 125 602
e 125 612
e 125 630
e 125 637
e 125 652
e 125 660
e 125 664
e 125 669
e 125 676
e 125 688
e 125 698
e 125 728
e 125 755
e 125 756
e 125 775
e 125 798
e 125 816
e 125 833
e 125 836
e 125 838
e 125 846
e 125 857
e 125 876
e 125 882
e 125 909
e 125 930
e 125 933
e 125 955
e 125 997
e 125 999
e 126 127
e 126 163
e 126 164
e 126 187
e 126 211
e 126 212
e 126 219
e 126 220
e 126 239
e 126 244
e 126 252
e 126 257
e 126 266
e 126 273
e 126 297
e 126 304
e 126 305
e 126 313
e 126 333
e 126 336
e 126 337
e 126 371
e 126 376
e 126 379
e 126 382
e 126 398
e 126 403
e 126 423
e 126 459
e 126 475
e 126 480
e 126 482
e 126 508
e 126 516
e 126 530
e 126 539
e 126 543
e 126 552
e 126 559
e 126 561
e 126 566
e 126 571
e 126 582
e 126 591
e 126 592
e 126 598
e 126 603
e 126 605
e 126 606
e 126 622
e 126 624
e 126 631
e 126 636
e 126 637
e 126 643
e 126 644
e 126 653
e 126 663
e 126 673
e 126 676
e 126 678
e 126 685
e 126 689
e 126 702
e 126 703
e 126 710
e 126 712
e 126 713
e 126 715
e 126 724
e 126 729
e 126 755
e 126 791
e 126 796
e 126 807
e 126 811
e 126 812
e 126 815
e 126 821
e 126 833
e 126 835
e 126 837
e 126 840
e 126 852
e 126 868
e 126 870
e 126 887
e 126 916
e 126 917
e 126 924
e 126 930
e 126 954
e 126 957
e 126 961
e 126 968
e 126 984
e 126 1000
e 127 158
e 127 165
e 127 169
e 127 186
e 127 188
e 127 205
e 127 211
e 127 219
e 127 223
e 127 232
e 127 233
e 127 258
e 127 269
e 127 291
e 127 293
e 127 297
e 127 315
e 127 320
e 127 323
e 127 325
e 127 334
e 127 336
e 127 338
e 127 340
e 127 348
e 127 350
e 127 352
e 127 374
e 127 397
e 127 398
e 127 449
e 127 452
e 127 456
e 127 458
e 127 461
e 127 472
e 127 484
e 127 501
e 127 520
e 127 525
e 127 534
e 127 552
e 127 582
e 127 590
e 127 599
e 127 603
e 127 614
e 127 620
e 127 623
e 127 634
e 127 641
e 127 645
e 127 663
e 127 675
e 127 685
e 127 693
e 127 724
e 127 732
e 127 740
e 127 745
e 127 750
e 127 756
e 127 759
e 127 762
e 127 815
e 127 818
e 127 824
e 127 831
e 127 838
e 127 844
e 127 864
e 127 873
e 127 880
e 127 883
e 127 890
e 127 898
e 127 902
e 127 938
e 127 941
e 127 950
e 127 954
e 127 955
e 127 959
e 127 961
e 127 972
e 127 973
e 127 974
e 127 983
e 127 984
e 127 989
e 128 133
e 128 147
e 128 148
e 128 168
e 128 184
e 128 201
e 128 207
e 128 222
e 128 231
e 128 244
e 128 256
e 128 267
e 128 273
e 128 290
e 128 297
e 128 301
e 128 304
e 128 307
e 128 310
e 128 320
e 128 325
e 128 333
e 128 341
e 128 372
e 128 388
e 128 400
e 128 404
e 128 420
e 128 427
e 128 431
e 128 436
e 128 457
e 128 458
e 128 466
e 128 468
e 128 473
e 128 486
e 128 487
e 128 520
e 128 542
e 128 543
e 128 551
e 128 560
e 128 569
e 128 571
e 128 584
e 128 589
e 128 592
e 128 604
e 128 606
e 128 611
e 128 669
e 128 673
e 128 674
e 128 675
e 128 677
e 128 681
e 128 687
e 128 691
e 128 704
e 128 713
e 128 722
e 128 726
e 128 737
e 128 740
e 128 743
e 128 747
e 128 773
e 128 793
e 128 814
e 128 826
e 128 835
e 128 837
e 128 855
e 128 856
e 128 862
e 128 867
e 128 869
e 128 870
e 128 876
e 128 883
e 128 898
e 128 918
e 128 923
e 128 927
e 128 947
e 128 949
e 128 954
e 128 959
e 128 962
e 128 978
e 128 988
e 129 131
e 129 147
e 129 149
e 129 157
e 129 193
e 129 200
e 129 204
e 129 205
e 129 215
e 129 218
e 129 220
e 129 223
e 129 225
e 129 228
e 129 229
e 129 232
e 129 238
e 129 243
e 129 248
e 129 255
e 129 274
e 129 284
e 129 289
e 129 293
e 129 294
e 129 297
e 129 306
e 129 311
e 129 333
e 129 341
e 129 345
e 129 349
e 129 356
e 129 362
e 129 379
e 129 381
e 129 403
e 129 422
e 129 424
e 129 427
e 129 429
e 129 436
e 129 441
e 129 452
e 129 519
e 129 531
e 129 533
e 129 538
e 129 542
e 129 549
e 129 573
e 129 602
e 129 603
e 129 607
e 129 619
e 129 625
e 129 628
e 129 629
e 129 639
e 129 652
e 129 658
e 129 669
e 129 670
e 129 675
e 129 683
e 129 689
e 129 691
e 129 700
e 129 701
e 129 709
e 129 710
e 129 712
e 129 716
e 129 721
e 129 740
e 129 745
e 129 748
e 129 753
e 129 762
e 129 771
e 129 780
e 129 782
e 129 802
e 129 807
e 129 821
e 129 822
e 129 826
e 129 841
e 129 849
e 129 864
e 129 866
e 129 874
e 129 879
e 129 894
e 129 895
e 129 932
e 129 936
e 129 949
e 129 958
e 129 960
e 129 970
e 129 980
e 129 996
e 130 150
e 130 153
e 130 158
e 130 159
e 130 168
e 130 173
e 130 182
e 130 194
e 130 202
e 130 214
e 130 215
e 130 229
e 130 232
e 130 241
e 130 259
e 130 276
e 130 283
e 130 302
e 130 303
e 130 307
e 130 323
e 130 327
e 130 333
e 130 338
e 130 340
e 130 351
e 130 370
e 130 376
e 130 383
e 130 390
e 130 393
e 130 405
e 130 446
e 130 464
e 130 465
e 130 470
e 130 480
e 130 492
e 130 499
e 130 509
e 130 529
e 130 531
e 130 564
e 130 577
e 130 586
e 130 588
e 130 590
e 130 598
e 130 635
e 130 637
e 130 645
e 130 646
e 130 648
e 130 650
e 130 667
e 130 678
e 130 689
e 130 695
e 130 697
e 130 699
e 130 702
e 130 709
e 130 712
e 130 713
e 130 754
e 130 768
e 130 770
e 130 797
e 130 800
e 130 819
e 130 824
e 130 825
e 130 832
e 130 843
e 130 849
e 130 853
e 130 869
e 130 886
e 130 892
e 130 908
e 130 919
e 130 939
e 130 942
e 130 946
e 130 949
e 130 950
e 130 956
e 130 961
e 130 971
e 130 975
e 130 976
e 130 977
e 130 991
e 130 995
e 131 168
e 131 185
e 131 186
e 131 188
e 131 195
e 131 223
e 131 242
e 131 243
e 131 251
e 131 252
e 131 277
e 131 282
e 131 301
e 131 304
e 131 307
e 131 310
e 131 329
e 131 341
e 131 342
e 131 343
e 131 345
e 131 356
e 131 364
e 131 393
e 131 395
e 131 398
e 131 408
e 131 410
e 131 416
e 131 439
e 131 440
e 131 445
e 131 451
e 131 471
e 131 472
e 131 496
e 131 514
e 131 515
e 131 538
e 131 570
e 131 571
e 131 575
e 131 576
e 131 603
e 131 616
e 131 648
e 131 649
e 131 655
e 131 687
e 131 693
e 131 717
e 131 718
e 131 722
e 131 733
e 131 750
e 131 751
e 131 772
e 131 791
e 131 804
e 131 825
e 131 828
e 131 859
e 131 860
e 131 865
e 131 879
e 131 883
e 131 892
e 131 898
e 131 907
e 131 935
e 131 957
e 131 960
e 131 964
e 131 975
e 131 982
e 131 991
e 131 992
e 131 993
e 132 133
e 132 141
e 132 153
e 132 163
e 132 175
e 132 181
e 132 215
e 132 254
e 132 275
e 132 319
e 132 326
e 132 328
e 132 330
e 132 336
e 132 337
e 132 346
e 132 371
e 132 375
e 132 389
e 132 398
e 132 399
e 132 401
e 132 426
e 132 428
e 132 430
e 132 437
e 132 438
e 132 446
e 132 455
e 132 459
e 132 476
e 132 486
e 132 511
e 132 517
e 132 519
e 132 522
e 132 525
e 132 547
e 132 550
e 132 559
e 132 563
e 132 569
e 132 591
e 132 601
e 132 603
e 132 617
e 132 629
e 132 630
e 132 636
e 132 638
e 132 644
e 132 667
e 132 668
e 132 670
e 132 675
e 132 692
e 132 701
e 132 704
e 132 710
e 132 713
e 132 716
e 132 719
e 132 729
e 132 754
e 132 760
e 132 767
e 132 769
e 132 779
e 132 781
e 132 829
e 132 837
e 132 840
e 132 841
e 132 844
e 132 862
e 132 875
e 132 877
e 132 892
e 132 900
e 132 906
e 132 910
e 132 920
e 132 926
e 132 930
e 132 941
e 132 942
e 132 949
e 132 956
e 132 961
e 132 967
e 132 982
e 132 991
e 133 134
e 133 149
e 133 154
e 133 164
e 133 170
e 133 182
e 133 185
e 133 188
e 133 189
e 133 190
e 133 197
e 133 200
e 133 214
e 133 216
e 133 232
e 133 244
e 133 250
e 133 252
e 133 254
e 133 262
e 133 271
e 133 284
e 133 287
e 133 308
e 133 315
e 133 324
e 133 326
e 133 329
e 133 358
e 133 362
e 133 369
e 133 372
e 133 395
e 133 401
e 133 402
e 133 421
e 133 445
e 133 447
e 133 468
e 133 499
e 133 504
e 133 528
e 133 532
e 133 538
e 133 541
e 133 551
e 133 552
e 133 574
e 133 586
e 133 588
e 133 589
e 133 591
e 133 592
e 133 609
e 133 616
e 133 627
e 133 651
e 133 658
e 133 688
e 133 696
e 133 699
e 133 712
e 133 714
e 133 727
e 133 733
e 133 770
e 133 777
e 133 805
e 133 810
e 133 813
e 133 815
e 133 827
e 133 833
e 133 836
e 133 844
e 133 845
e 133 863
e 133 870
e 133 873
e 133 897
e 133 899
e 133 906
e 133 930
e 133 939
e 133 950
e 133 968
e 133 969
e 133 984
e 133 985
e 133 988
e 133 990
e 133 991
e 134 138
e 134 158
e 134 173
e 134 175
e 134 182
e 134 190
e 134 216
e 134 217
e 134 225
e 134 241
e 134 260
e 134 271
e 134 276
e 134 298
e 134 305
e 134 319
e 134 322
e 134 335
e 134 336
e 134 367
e 134 386
e 134 388
e 134 398
e 134 409
e 134 419
e 134 421
e 134 423
e 134 424
e 134 432
e 134 438
e 134 449
e 134 456
e 134 461
e 134 475
e 134 485
e 134 486
e 134 499
e 134 504
e 134 512
e 134 513
e 134 528
e 134 533
e 134 544
e 134 553
e 134 555
e 134 568
e 134 572
e 134 575
e 134 582
e 134 586
e 134 605
e 134 609
e 134 618
e 134 619
e 134 625
e 134 636
e 134 646
e 134 649
e 134 653
e 134 655
e 134 673
e 134 677
e 134 685
e 134 689
e 134 690
e 134 701
e 134 722
e 134 751
e 134 758
e 134 763
e 134 768
e 134 771
e 134 774
e 134 790
e 134 800
e 134 809
e 134 832
e 134 834
e 134 859
e 134 861
e 134 875
e 134 883
e 134 897
e 134 924
e 134 948
e 134 968
e 134 970
e 134 988
e 135 191
e 135 204
e 135 206
e 135 208
e 135 217
e 135 218
e 135 238
e 135 239
e 135 260
e 135 273
e 135 276
e 135 315
e 135 333
e 135 334
e 135 340
e 135 347
e 135 357
e 135 378
e 135 384
e 135 391
e 135 396
e 135 401
e 135 417
e 135 426
e 135 428
e 135 431
e 135 446
e 135 455
e 135 470
e 135 476
e 135 482
e 135 485
e 135 494
e 135 495
e 135 506
e 135 510
e 135 548
e 135 565
e 135 578
e 135 592
e 135 593
e 135 599
e 135 602
e 135 606
e 135 626
e 135 646
e 135 668
e 135 670
e 135 693
e 135 698
e 135 704
e 135 727
e 135 754
e 135 757
e 135 761
e 135 762
e 135 767
e 135 776
e 135 781
e 135 803
e 135 805
e 135 826
e 135 833
e 135 837
e 135 845
e 135 851
e 135 853
e 135 860
e 135 865
e 135 868
e 135 900
e 135 913
e 135 919
e 135 922
e 135 939
e 135 943
e 135 957
e 135 967
e 135 969
e 135 970
e 135 991
e 136 141
e 136 142
e 136 151
e 136 165
e 136 172
e 136 173
e 136 187
e 136 215
e 136 228
e 136 229
e 136 245
e 136 246
e 136 252
e 136 263
e 136 265
e 136 266
e 136 281
e 136 283
e 136 290
e 136 294
e 136 315
e 136 325
e 136 329
e 136 330
e 136 334
e 136 362
e 136 392
e 136 395
e 136 403
e 136 412
e 136 452
e 136 460
e 136 478
e 136 479
e 136 481
e 136 489
e 136 491
e 136 492
e 136 529
e 136 555
e 136 563
e 136 564
e 136 570
e 136 602
e 136 605
e 136 616
e 136 636
e 136 643
e 136 647
e 136 659
e 136 666
e 136 727
e 136 733
e 136 745
e 136 764
e 136 766
e 136 777
e 136 792
e 136 810
e 136 836
e 136 837
e 136 839
e 136 840
e 136 841
e 136 852
e 136 879
e 136 907
e 136 912
e 136 920
e 136 926
e 136 956
e 136 967
e 136 974
e 136 977
e 136 990
e 136 999
e 137 151
e 137 167
e 137 231
e 137 241
e 137 253
e 137 266
e 137 277
e 137 281
e 137 292
e 137 300
e 137 302
e 137 304
e 137 315
e 137 318
e 137 323
e 137 325
e 137 334
e 137 360
e 137 361
e 137 366
e 137 375
e 137 388
e 137 391
e 137 397
e 137 401
e 137 405
e 137 429
e 137 441
e 137 458
e 137 459
e 137 463
e 137 466
e 137 469
e 137 481
e 137 482
e 137 507
e 137 514
e 137 520
e 137 530
e 137 539
e 137 542
e 137 549
e 137 551
e 137 558
e 137 583
e 137 597
e 137 600
e 137 602
e 137 603
e 137 606
e 137 617
e 137 618
e 137 623
e 137 624
e 137 629
e 137 630
e 137 633
e 137 639
e 137 643
e 137 652
e 137 677
e 137 695
e 137 723
e 137 731
e 137 740
e 137 741
e 137 752
e 137 753
e 137 758
e 137 759
e 137 774
e 137 844
e 137 845
e 137 846
e 137 864
e 137 882
e 137 884
e 137 886
e 137 891
e 137 894
e 137 896
e 137 903
e 137 906
e 137 927
e 137 935
e 137 959
e 137 967
e 137 977
e 137 994
e 137 997
e 138 151
e 138 154
e 138 160
e 138 171
e 138 172
e 138 193
e 138 201
e 138 207
e 138 217
e 138 218
e 138 244
e 138 256
e 138 268
e 138 269
e 138 285
e 138 302
e 138 315
e 138 317
e 138 319
e 138 322
e 138 347
e 138 349
e 138 350
e 138 351
e 138 359
e 138 366
e 138 367
e 138 369
e 138 381
e 138 401
e 138 404
e 138 421
e 138 422
e 138 423
e 138 452
e 138 453
e 138 455
e 138 457
e 138 466
e 138 482
e 138 484
e 138 490
e 138 491
e 138 493
e 138 502
e 138 504
e 138 507
e 138 510
e 138 518
e 138 520
e 138 525
e 138 547
e 138 551
e 138 556
e 138 576
e 138 585
e 138 591
e 138 596
e 138 597
e 138 598
e 138 614
e 138 625
e 138 650
e 138 691
e 138 709
e 138 714
e 138 718
e 138 730
e 138 740
e 138 741
e 138 754
e 138 758
e 138 768
e 138 773
e 138 776
e 138 785
e 138 798
e 138 799
e 138 811
e 138 816
e 138 824
e 138 833
e 138 837
e 138 843
e 138 859
e 138 875
e 138 881
e 138 908
e 138 918
e 138 928
e 138 944
e 138 954
e 138 957
e 138 967
e 138 978
e 138 984
e 139 163
e 139 168
e 139 173
e 139 205
e 139 218
e 139 235
e 139 236
e 139 244
e 139 252
e 139 259
e 139 262
e 139 296
e 139 297
e 139 316
e 139 323
e 139 350
e 139 364
e 139 369
e 139 371
e 139 375
e 139 384
e 139 395
e 139 401
e 139 405
e 139 412
e 139 421
e 139 423
e 139 430
e 139 432
e 139 444
e 139 455
e 139 473
e 139 477
e 139 486
e 139 500
e 139 532
e 139 543
e 139 554
e 139 557
e 139 571
e 139 578
e 139 585
e 139 587
e 139 591
e 139 592
e 139 595
e 139 598
e 139 604
e 139 621
e 139 622
e 139 624
e 139 656
e 139 658
e 139 686
e 139 729
e 139 731
e 139 748
e 139 751
e 139 753
e 139 758
e 139 761
e 139 762
e 139 771
e 139 801
e 139 803
e 139 843
e 139 844
e 139 853
e 139 872
e 139 886
e 139 887
e 139 898
e 139 905
e 139 911
e 139 950
e 139 963
e 139 974
e 139 991
e 139 998
e 140 153
e 140 166
e 140 192
e 140 201
e 140 206
e 140 217
e 140 224
e 140 225
e 140 229
e 140 247
e 140 255
e 140 268
e 140 271
e 140 277
e 140 284
e 140 285
e 140 316
e 140 330
e 140 336
e 140 337
e 140 339
e 140 343
e 140 351
e 140 352
e 140 359
e 140 364
e 140 368
e 140 396
e 140 401
e 140 402
e 140 410
e 140 412
e 140 418
e 140 423
e 140 430
e 140 447
e 140 460
e 140 481
e 140 500
e 140 540
e 140 548
e 140 552
e 140 555
e 140 572
e 140 576
e 140 578
e 140 598
e 140 600
e 140 615
e 140 623
e 140 639
e 140 642
e 140 644
e 140 657
e 140 662
e 140 670
e 140 681
e 140 685
e 140 691
e 140 703
e 140 708
e 140 720
e 140 721
e 140 724
e 140 728
e 140 744
e 140 746
e 140 755
e 140 758
e 140 769
e 140 788
e 140 795
e 140 805
e 140 815
e 140 820
e 140 839
e 140 850
e 140 855
e 140 860
e 140 868
e 140 874
e 140 880
e 140 883
e 140 886
e 140 892
e 140 901
e 140 909
e 140 910
e 140 922
e 140 948
e 140 956
e 140 969
e 140 982
e 140 983
e 140 993
e 140 998
e 141 144
e 141 147
e 141 157
e 141 166
e 141 182
e 141 183
e 141 189
e 141 193
e 141 204
e 141 206
e 141 209
e 141 217
e 141 231
e 141 254
e 141 273
e 141 277
e 141 290
e 141 297
e 141 303
e 141 304
e 141 313
e 141 316
e 141 321
e 141 324
e 141 334
e 141 349
e 141 375
e 141 386
e 141 394
e 141 395
e 141 398
e 141 402
e 141 412
e 141 420
e 141 422
e 141 447
e 141 451
e 141 460
e 141 474
e 141 481
e 141 488
e 141 497
e 141 501
e 141 511
e 141 519
e 141 522
e 141 525
e 141 561
e 141 601
e 141 616
e 141 620
e 141 625
e 141 627
e 141 628
e 141 629
e 141 634
e 141 641
e 141 669
e 141 677
e 141 683
e 141 697
e 141 699
e 141 703
e 141 706
e 141 709
e 141 717
e 141 719
e 141 729
e 141 734
e 141 739
e 141 751
e 141 757
e 141 788
e 141 791
e 141 803
e 141 824
e 141 839
e 141 846
e 141 849
e 141 853
e 141 858
e 141 861
e 141 885
e 141 890
e 141 892
e 141 894
e 141 896
e 141 900
e 141 906
e 141 914
e 141 923
e 141 931
e 141 934
e 141 940
e 141 950
e 141 965
e 141 981
e 141 983
e 141 988
e 142 143
e 142 156
e 142 161
e 142 170
e 142 180
e 142 185
e 142 196
e 142 207
e 142 216
e 142 217
e 142 220
e 142 224
e 142 239
e 142 248
e 142 250
e 142 257
e 142 263
e 142 265
e 142 280
e 142 284
e 142 290
e 142 303
e 142 319
e 142 321
e 142 329
e 142 331
e 142 332
e 142 344
e 142 346
e 142 361
e 142 381
e 142 383
e 142 394
e 142 396
e 142 417
e 142 426
e 142 430
e 142 449
e 142 461
e 142 469
e 142 487
e 142 499
e 142 507
e 142 520
e 142 530
e 142 539
e 142 553
e 142 558
e 142 565
e 142 584
e 142 605
e 142 610
e 142 618
e 142 623
e 142 653
e 142 662
e 142 673
e 142 678
e 142 679
e 142 688
e 142 695
e 142 716
e 142 720
e 142 731
e 142 733
e 142 747
e 142 761
e 142 774
e 142 775
e 142 782
e 142 789
e 142 791
e 142 813
e 142 839
e 142 851
e 142 858
e 142 864
e 142 876
e 142 878
e 142 886
e 142 889
e 142 906
e 142 911
e 142 913
e 142 917
e 142 920
e 142 941
e 142 944
e 142 946
e 142 947
e 142 951
e 142 954
e 142 961
e 142 978
e 142 990
e 142 999
e 143 147
e 143 185
e 143 202
e 143 217
e 143 226
e 143 229
e 143 250
e 143 275
e 143 285
e 143 299
e 143 308
e 143 311
e 143 328
e 143 336
e 143 339
e 143 360
e 143 375
e 143 395
e 143 397
e 143 413
e 143 418
e 143 425
e 143 447
e 143 460
e 143 464
e 143 465
e 143 474
e 143 481
e 143 494
e 143 507
e 143 520
e 143 528
e 143 540
e 143 549
e 143 572
e 143 573
e 143 575
e 143 605
e 143 628
e 143 632
e 143 647
e 143 680
e 143 697
e 143 703
e 143 707
e 143 713
e 143 716
e 143 723
e 143 750
e 143 756
e 143 834
e 143 839
e 143 843
e 143 862
e 143 863
e 143 867
e 143 879
e 143 886
e 143 892
e 143 916
e 143 920
e 143 922
e 143 924
e 143 931
e 143 932
e 143 935
e 143 936
e 143 940
e 143 948
e 143 956
e 143 971
e 143 976
e 143 983
e 143 987
e 143 998
e 144 168
e 144 201
e 144 206
e 144 208
e 144 214
e 144 222
e 144 251
e 144 260
e 144 276
e 144 297
e 144 314
e 144 321
e 144 329
e 144 335
e 144 338
e 144 348
e 144 354
e 144 360
e 144 376
e 144 387
e 144 391
e 144 404
e 144 415
e 144 423
e 144 434
e 144 447
e 144 456
e 144 465
e 144 472
e 144 481
e 144 488
e 144 496
e 144 504
e 144 515
e 144 523
e 144 525
e 144 527
e 144 550
e 144 568
e 144 573
e 144 574
e 144 585
e 144 599
e 144 622
e 144 640
e 144 644
e 144 661
e 144 684
e 144 687
e 144 688
e 144 698
e 144 699
e 144 704
e 144 709
e 144 711
e 144 716
e 144 728
e 144 735
e 144 737
e 144 739
e 144 748
e 144 768
e 144 770
e 144 772
e 144 812
e 144 850
e 144 870
e 144 885
e 144 887
e 144 906
e 144 916
e 144 940
e 144 950
e 144 957
e 144 978
e 144 985
e 145 148
e 145 155
e 145 168
e 145 180
e 145 190
e 145 192
e 145 194
e 145 212
e 145 215
e 145 220
e 145 226
e 145 231
e 145 234
e 145 242
e 145 246
e 145 256
e 145 258
e 145 266
e 145 273
e 145 274
e 145 292
e 145 296
e 145 305
e 145 317
e 145 329
e 145 332
e 145 352
e 145 357
e 145 364
e 145 381
e 145 391
e 145 399
e 145 418
e 145 439
e 145 442
e 145 443
e 145 447
e 145 452
e 145 456
e 145 459
e 145 470
e 145 483
e 145 489
e 145 494
e 145 514
e 145 519
e 145 544
e 145 550
e 145 568
e 145 572
e 145 609
e 145 618
e 145 640
e 145 644
e 145 646
e 145 650
e 145 652
e 145 669
e 145 674
e 145 701
e 145 706
e 145 714
e 145 718
e 145 747
e 145 752
e 145 763
e 145 779
e 145 785
e 145 790
e 145 791
e 145 802
e 145 806
e 145 812
e 145 813
e 145 829
e 145 835
e 145 866
e 145 867
e 145 882
e 145 894
e 145 896
e 145 897
e 145 898
e 145 909
e 145 973
e 145 978
e 145 986
e 145 994
e 145 995
e 146 158
e 146 160
e 146 169
e 146 180
e 146 195
e 146 214
e 146 218
e 146 219
e 146 233
e 146 241
e 146 251
e 146 331
e 146 332
e 146 341
e 146 347
e 146 359
e 146 370
e 146 394
e 146 396
e 146 400
e 146 412
e 146 414
e 146 417
e 146 418
e 146 421
e 146 426
e 146 439
e 146 443
e 146 455
e 146 470
e 146 474
e 146 481
e 146 499
e 146 504
e 146 529
e 146 538
e 146 542
e 146 559
e 146 564
e 146 568
e 146 571
e 146 587
e 146 593
e 146 603
e 146 628
e 146 631
e 146 635
e 146 641
e 146 658
e 146 665
e 146 666
e 146 669
e 146 676
e 146 686
e 146 688
e 146 690
e 146 692
e 146 720
e 146 736
e 146 758
e 146 773
e 146 774
e 146 776
e 146 795
e 146 800
e 146 823
e 146 825
e 146 828
e 146 830
e 146 843
e 146 853
e 146 864
e 146 875
e 146 876
e 146 886
e 146 900
e 146 931
e 146 940
e 146 946
e 146 961
e 146 977
e 146 985
e 146 995
e 147 160
e 147 165
e 147 214
e 147 215
e 147 238
e 147 246
e 147 247
e 147 263
e 147 264
e 147 267
e 147 272
e 147 305
e 147 317
e 147 332
e 147 333
e 147 340
e 147 363
e 147 365
e 147 422
e 147 423
e 147 425
e 147 435
e 147 447
e 147 483
e 147 486
e 147 487
e 147 491
e 147 493
e 147 495
e 147 501
e 147 509
e 147 524
e 147 528
e 147 530
e 147 534
e 147 535
e 147 571
e 147 574
e 147 575
e 147 577
e 147 592
e 147 594
e 147 600
e 147 623
e 147 636
e 147 639
e 147 641
e 147 643
e 147 646
e 147 652
e 147 659
e 147 663
e 147 666
e 147 671
e 147 681
e 147 716
e 147 728
e 147 730
e 147 734
e 147 738
e 147 744
e 147 747
e 147 761
e 147 765
e 147 769
e 147 785
e 147 794
e 147 816
e 147 817
e 147 834
e 147 837
e 147 863
e 147 868
e 147 874
e 147 879
e 147 888
e 147 917
e 147 928
e 147 930
e 147 932
e 147 935
e 147 944
e 148 163
e 148 166
e 148 168
e 148 185
e 148 191
e 148 199
e 148 206
e 148 209
e 148 220
e 148 222
e 148 235
e 148 245
e 148 256
e 148 264
e 148 277
e 148 286
e 148 287
e 148 289
e 148 290
e 148 305
e 148 315
e 148 327
e 148 342
e 148 352
e 148 362
e 148 386
e 148 395
e 148 397
e 148 409
e 148 416
e 148 424
e 148 437
e 148 448
e 148 460
e 148 461
e 148 465
e 148 470
e 148 471
e 148 503
e 148 512
e 148 529
e 148 540
e 148 545
e 148 551
e 148 557
e 148 571
e 148 575
e 148 579
e 148 596
e 148 643
e 148 645
e 148 653
e 148 687
e 148 689
e 148 691
e 148 707
e 148 721
e 148 725
e 148 728
e 148 729
e 148 731
e 148 746
e 148 763
e 148 770
e 148 796
e 148 805
e 148 814
e 148 817
e 148 823
e 148 841
e 148 847
e 148 856
e 148 863
e 148 867
e 148 877
e 148 888
e 148 893
e 148 894
e 148 896
e 148 899
e 148 912
e 148 918
e 148 949
e 148 951
e 148 963
e 148 965
e 148 966
e 148 976
e 148 984
e 148 993
e 148 999
e 148 1000
e 149 163
e 149 173
e 149 174
e 149 188
e 149 189
e 149 190
e 149 193
e 149 195
e 149 200
e 149 205
e 149 214
e 149 226
e 149 238
e 149 252
e 149 255
e 149 277
e 149 282
e 149 286
e 149 287
e 149 302
e 149 303
e 149 337
e 149 340
e 149 368
e 149 373
e 149 381
e 149 385
e 149 387
e 149 393
e 149 401
e 149 406
e 149 433
e 149 435
e 149 442
e 149 451
e 149 454
e 149 461
e 149 474
e 149 475
e 149 476
e 149 483
e 149 488
e 149 504
e 149 516
e 149 520
e 149 526
e 149 529
e 149 548
e 149 557
e 149 562
e 149 566
e 149 568
e 149 589
e 149 611
e 149 616
e 149 620
e 149 628
e 149 629
e 149 638
e 149 659
e 149 670
e 149 674
e 149 682
e 149 686
e 149 689
e 149 698
e 149 699
e 149 705
e 149 708
e 149 714
e 149 738
e 149 751
e 149 761
e 149 767
e 149 778
e 149 781
e 149 785
e 149 788
e 149 793
e 149 802
e 149 807
e 149 823
e 149 854
e 149 876
e 149 882
e 149 887
e 149 891
e 149 898
e 149 902
e 149 906
e 149 920
e 149 929
e 149 930
e 149 932
e 149 936
e 149 938
e 149 961
e 149 979
e 149 984
e 149 994
e 150 166
e 150 176
e 150 187
e 150 194
e 150 202
e 150 210
e 150 213
e 150 223
e 150 229
e 150 245
e 150 276
e 150 287
e 150 288
e 150 298
e 150 316
e 150 333
e 150 348
e 150 350
e 150 377
e 150 389
e 150 399
e 150 402
e 150 436
e 150 440
e 150 460
e 150 471
e 150 496
e 150 498
e 150 533
e 150 552
e 150 555
e 150 568
e 150 573
e 150 574
e 150 583
e 150 590
e 150 600
e 150 604
e 150 648
e 150 652
e 150 658
e 150 662
e 150 666
e 150 670
e 150 675
e 150 685
e 150 689
e 150 692
e 150 694
e 150 705
e 150 711
e 150 716
e 150 724
e 150 745
e 150 773
e 150 776
e 150 780
e 150 788
e 150 807
e 150 841
e 150 851
e 150 878
e 150 884
e 150 887
e 150 902
e 150 905
e 150 908
e 150 982
e 150 983
e 151 157
e 151 164
e 151 170
e 151 178
e 151 187
e 151 190
e 151 202
e 151 208
e 151 211
e 151 228
e 151 237
e 151 250
e 151 264
e 151 272
e 151 291
e 151 312
e 151 318
e 151 324
e 151 329
e 151 342
e 151 349
e 151 362
e 151 369
e 151 370
e 151 385
e 151 386
e 151 393
e 151 410
e 151 434
e 151 450
e 151 453
e 151 468
e 151 475
e 151 489
e 151 497
e 151 499
e 151 514
e 151 523
e 151 528
e 151 551
e 151 557
e 151 579
e 151 599
e 151 607
e 151 620
e 151 627
e 151 630
e 151 631
e 151 640
e 151 660
e 151 666
e 151 677
e 151 680
e 151 696
e 151 714
e 151 741
e 151 742
e 151 777
e 151 784
e 151 798
e 151 810
e 151 860
e 151 864
e 151 869
e 151 896
e 151 901
e 151 902
e 151 903
e 151 907
e 151 914
e 151 925
e 151 932
e 151 958
e 151 971
e 151 983
e 151 994
e 152 160
e 152 171
e 152 176
e 152 178
e 152 187
e 152 211
e 152 221
e 152 222
e 152 228
e 152 230
e 152 233
e 152 238
e 152 244
e 152 265
e 152 272
e 152 278
e 152 309
e 152 329
e 152 331
e 152 337
e 152 341
e 152 368
e 152 370
e 152 376
e 152 393
e 152 396
e 152 398
e 152 431
e 152 432
e 152 433
e 152 436
e 152 448
e 152 457
e 152 463
e 152 473
e 152 474
e 152 488
e 152 489
e 152 499
e 152 500
e 152 512
e 152 523
e 152 526
e 152 532
e 152 539
e 152 548
e 152 549
e 152 556
e 152 562
e 152 563
e 152 572
e 152 583
e 152 587
e 152 593
e 152 594
e 152 601
e 152 604
e 152 612
e 152 616
e 152 626
e 152 627
e 152 630
e 152 715
e 152 721
e 152 728
e 152 735
e 152 736
e 152 753
e 152 790
e 152 802
e 152 807
e 152 833
e 152 844
e 152 882
e 152 894
e 152 907
e 152 912
e 152 930
e 152 956
e 152 958
e 152 971
e 152 975
e 152 981
e 152 989
e 153 175
e 153 193
e 153 196
e 153 212
e 153 222
e 153 228
e 153 281
e 153 289
e 153 298
e 153 308
e 153 321
e 153 328
e 153 343
e 153 351
e 153 358
e 153 360
e 153 362
e 153 369
e 153 387
e 153 397
e 153 406
e 153 422
e 153 427
e 153 429
e 153 432
e 153 434
e 153 435
e 153 436
e 153 441
e 153 447
e 153 448
e 153 454
e 153 459
e 153 463
e 153 482
e 153 485
e 153 492
e 153 499
e 153 501
e 153 504
e 153 515
e 153 525
e 153 559
e 153 564
e 153 571
e 153 575
e 153 582
e 153 593
e 153 605
e 153 628
e 153 631
e 153 633
e 153 634
e 153 639
e 153 667
e 153 686
e 153 708
e 153 720
e 153 744
e 153 752
e 153 755
e 153 766
e 153 771
e 153 775
e 153 802
e 153 805
e 153 807
e 153 822
e 153 829
e 153 831
e 153 842
e 153 849
e 153 859
e 153 861
e 153 865
e 153 870
e 153 871
e 153 877
e 153 904
e 153 911
e 153 931
e 153 940
e 153 947
e 153 954
e 153 975
e 153 990
e 153 992
e 153 997
e 154 163
e 154 165
e 154 171
e 154 203
e 154 204
e 154 208
e 154 242
e 154 243
e 154 259
e 154 262
e 154 281
e 154 297
e 154 308
e 154 312
e 154 323
e 154 335
e 154 349
e 154 370
e 154 379
e 154 384
e 154 391
e 154 398
e 154 404
e 154 430
e 154 439
e 154 470
e 154 475
e 154 485
e 154 487
e 154 497
e 154 500
e 154 504
e 154 510
e 154 544
e 154 546
e 154 554
e 154 556
e 154 569
e 154 574
e 154 585
e 154 587
e 154 617
e 154 631
e 154 634
e 154 646
e 154 662
e 154 666
e 154 678
e 154 686
e 154 688
e 154 691
e 154 696
e 154 707
e 154 728
e 154 729
e 154 733
e 154 750
e 154 753
e 154 767
e 154 789
e 154 813
e 154 818
e 154 836
e 154 839
e 154 844
e 154 847
e 154 863
e 154 866
e 154 896
e 154 897
e 154 901
e 154 933
e 154 940
e 154 947
e 154 960
e 154 981
e 154 986
e 154 991
e 154 994
e 155 159
e 155 161
e 155 166
e 155 177
e 155 178
e 155 187
e 155 190
e 155 192
e 155 206
e 155 209
e 155 213
e 155 214
e 155 225
e 155 231
e 155 236
e 155 243
e 155 255
e 155 260
e 155 263
e 155 279
e 155 280
e 155 281
e 155 288
e 155 289
e 155 309
e 155 313
e 155 321
e 155 323
e 155 329
e 155 333
e 155 337
e 155 340
e 155 354
e 155 371
e 155 379
e 155 384
e 155 406
e 155 412
e 155 432
e 155 439
e 155 454
e 155 455
e 155 473
e 155 476
e 155 484
e 155 498
e 155 516
e 155 523
e 155 533
e 155 571
e 155 572
e 155 576
e 155 580
e 155 590
e 155 596
e 155 600
e 155 604
e 155 605
e 155 639
e 155 641
e 155 642
e 155 652
e 155 658
e 155 666
e 155 697
e 155 703
e 155 722
e 155 724
e 155 725
e 155 727
e 155 729
e 155 734
e 155 765
e 155 767
e 155 771
e 155 782
e 155 787
e 155 799
e 155 807
e 155 808
e 155 826
e 155 828
e 155 833
e 155 850
e 155 859
e 155 873
e 155 889
e 155 898
e 155 906
e 155 913
e 155 933
e 155 940
e 155 956
e 155 959
e 155 984
e 155 996
e 156 161
e 156 176
e 156 177
e 156 181
e 156 183
e 156 188
e 156 191
e 156 193
e 156 202
e 156 257
e 156 303
e 156 327
e 156 345
e 156 354
e 156 362
e 156 369
e 156 374
e 156 383
e 156 385
e 156 416
e 156 445
e 156 456
e 156 467
e 156 471
e 156 472
e 156 484
e 156 498
e 156 516
e 156 518
e 156 519
e 156 526
e 156 537
e 156 557
e 156 565
e 156 576
e 156 597
e 156 598
e 156 600
e 156 607
e 156 634
e 156 637
e 156 642
e 156 646
e 156 647
e 156 661
e 156 669
e 156 671
e 156 675
e 156 683
e 156 693
e 156 716
e 156 735
e 156 766
e 156 769
e 156 774
e 156 777
e 156 779
e 156 788
e 156 789
e 156 801
e 156 817
e 156 837
e 156 841
e 156 870
e 156 887
e 156 908
e 156 918
e 156 920
e 156 922
e 156 926
e 156 938
e 156 944
e 156 960
e 156 965
e 156 971
e 157 222
e 157 224
e 157 232
e 157 236
e 157 251
e 157 257
e 157 259
e 157 273
e 157 278
e 157 281
e 157 291
e 157 304
e 157 307
e 157 345
e 157 359
e 157 365
e 157 392
e 157 404
e 157 407
e 157 410
e 157 413
e 157 418
e 157 433
e 157 453
e 157 487
e 157 492
e 157 500
e 157 505
e 157 508
e 157 517
e 157 520
e 157 542
e 157 549
e 157 550
e 157 552
e 157 555
e 157 560
e 157 561
e 157 577
e 157 581
e 157 593
e 157 599
e 157 603
e 157 605
e 157 613
e 157 623
e 157 624
e 157 627
e 157 628
e 157 634
e 157 662
e 157 667
e 157 672
e 157 701
e 157 719
e 157 723
e 157 726
e 157 731
e 157 760
e 157 789
e 157 820
e 157 827
e 157 835
e 157 837
e 157 841
e 157 858
e 157 873
e 157 881
e 157 882
e 157 886
e 157 892
e 157 894
e 157 899
e 157 900
e 157 915
e 157 936
e 157 939
e 157 942
e 157 961
e 157 962
e 157 972
e 157 984
e 157 996
e 157 1000
e 158 165
e 158 174
e 158 202
e 158 243
e 158 252
e 158 259
e 158 266
e 158 268
e 158 278
e 158 281
e 158 288
e 158 307
e 158 309
e 158 312
e 158 326
e 158 334
e 158 343
e 158 380
e 158 400
e 158 407
e 158 408
e 158 423
e 158 436
e 158 456
e 158 482
e 158 490
e 158 496
e 158 506
e 158 512
e 158 538
e 158 557
e 158 561
e 158 571
e 158 586
e 158 595
e 158 617
e 158 623
e 158 657
e 158 658
e 158 694
e 158 704
e 158 714
e 158 715
e 158 717
e 158 725
e 158 735
e 158 737
e 158 750
e 158 755
e 158 763
e 158 778
e 158 781
e 158 799
e 158 813
e 158 816
e 158 823
e 158 839
e 158 841
e 158 845
e 158 849
e 158 875
e 158 887
e 158 890
e 158 896
e 158 916
e 158 932
e 158 947
e 158 948
e 158 956
e 158 965
e 158 972
e 158 998
e 159 176
e 159 180
e 159 193
e 159 194
e 159 196
e 159 212
e 159 218
e 159 219
e 159 230
e 159 232
e 159 233
e 159 236
e 159 237
e 159 261
e 159 265
e 159 286
e 159 287
e 159 306
e 159 314
e 159 321
e 159 364
e 159 370
e 159 372
e 159 393
e 159 413
e 159 416
e 159 431
e 159 440
e 159 475
e 159 496
e 159 499
e 159 531
e 159 548
e 159 554
e 159 592
e 159 597
e 159 601
e 159 621
e 159 642
e 159 663
e 159 667
e 159 675
e 159 691
e 159 718
e 159 728
e 159 736
e 159 747
e 159 755
e 159 768
e 159 778
e 159 785
e 159 788
e 159 795
e 159 802
e 159 803
e 159 808
e 159 816
e 159 849
e 159 856
e 159 863
e 159 866
e 159 898
e 159 917
e 159 930
e 159 946
e 159 947
e 159 971
e 159 974
e 159 981
e 159 982
e 159 984
e 159 992
e 159 997
e 160 167
e 160 175
e 160 177
e 160 185
e 160 186
e 160 192
e 160 205
e 160 207
e 160 235
e 160 261
e 160 267
e 160 268
e 160 278
e 160 288
e 160 296
e 160 297
e 160 298
e 160 303
e 160 310
e 160 314
e 160 325
e 160 341
e 160 349
e 160 377
e 160 380
e 160 386
e 160 392
e 160 396
e 160 401
e 160 411
e 160 415
e 160 417
e 160 419
e 160 426
e 160 447
e 160 458
e 160 462
e 160 476
e 160 496
e 160 514
e 160 515
e 160 522
e 160 524
e 160 525
e 160 540
e 160 554
e 160 572
e 160 577
e 160 578
e 160 583
e 160 585
e 160 586
e 160 590
e 160 604
e 160 607
e 160 612
e 160 626
e 160 630
e 160 631
e 160 632
e 160 636
e 160 650
e 160 669
e 160 681
e 160 682
e 160 705
e 160 707
e 160 718
e 160 764
e 160 765
e 160 766
e 160 768
e 160 791
e 160 792
e 160 815
e 160 831
e 160 843
e 160 859
e 160 902
e 160 911
e 160 936
e 160 939
e 160 955
e 161 165
e 161 170
e 161 178
e 161 181
e 161 188
e 161 194
e 161 208
e 161 227
e 161 232
e 161 241
e 161 249
e 161 273
e 161 286
e 161 296
e 161 302
e 161 306
e 161 331
e 161 341
e 161 354
e 161 360
e 161 371
e 161 373
e 161 380
e 161 386
e 161 390
e 161 391
e 161 400
e 161 406
e 161 418
e 161 424
e 161 443
e 161 468
e 161 474
e 161 476
e 161 493
e 161 509
e 161 526
e 161 527
e 161 537
e 161 550
e 161 551
e 161 563
e 161 567
e 161 595
e 161 608
e 161 619
e 161 625
e 161 626
e 161 629
e 161 633
e 161 642
e 161 661
e 161 662
e 161 673
e 161 675
e 161 691
e 161 707
e 161 709
e 161 713
e 161 729
e 161 733
e 161 736
e 161 737
e 161 742
e 161 752
e 161 758
e 161 769
e 161 778
e 161 788
e 161 812
e 161 813
e 161 827
e 161 842
e 161 861
e 161 870
e 161 872
e 161 894
e 161 912
e 161 922
e 161 935
e 161 949
e 161 970
e 162 165
e 162 173
e 162 189
e 162 198
e 162 211
e 162 212
e 162 233
e 162 260
e 162 264
e 162 267
e 162 307
e 162 316
e 162 329
e 162 348
e 162 355
e 162 362
e 162 364
e 162 372
e 162 378
e 162 391
e 162 405
e 162 406
e 162 410
e 162 417
e 162 448
e 162 450
e 162 455
e 162 464
e 162 482
e 162 496
e 162 501
e 162 517
e 162 521
e 162 532
e 162 541
e 162 547
e 162 554
e 162 573
e 162 586
e 162 596
e 162 608
e 162 619
e 162 621
e 162 625
e 162 670
e 162 672
e 162 673
e 162 682
e 162 688
e 162 701
e 162 709
e 162 720
e 162 725
e 162 727
e 162 729
e 162 733
e 162 735
e 162 752
e 162 763
e 162 768
e 162 777
e 162 782
e 162 785
e 162 792
e 162 800
e 162 824
e 162 845
e 162 853
e 162 860
e 162 869
e 162 873
e 162 892
e 162 919
e 162 926
e 162 931
e 162 953
e 162 956
e 162 978
e 162 988
e 162 997
e 163 166
e 163 169
e 163 170
e 163 199
e 163 206
e 163 207
e 163 217
e 163 223
e 163 233
e 163 238
e 163 245
e 163 247
e 163 251
e 163 253
e 163 279
e 163 283
e 163 304
e 163 319
e 163 335
e 163 351
e 163 359
e 163 368
e 163 402
e 163 405
e 163 407
e 163 434
e 163 442
e 163 471
e 163 477
e 163 492
e 163 517
e 163 521
e 163 523
e 163 527
e 163 549
e 163 555
e 163 560
e 163 581
e 163 583
e 163 601
e 163 606
e 163 616
e 163 626
e 163 637
e 163 644
e 163 675
e 163 676
e 163 701
e 163 702
e 163 709
e 163 710
e 163 735
e 163 737
e 163 743
e 163 820
e 163 828
e 163 841
e 163 851
e 163 853
e 163 867
e 163 869
e 163 888
e 163 892
e 163 894
e 163 920
e 163 947
e 163 957
e 163 959
e 163 962
e 163 965
e 163 969
e 163 974
e 163 979
e 163 987
e 163 994
e 163 996
e 164 193
e 164 201
e 164 206
e 164 211
e 164 214
e 164 223
e 164 230
e 164 237
e 164 243
e 164 254
e 164 272
e 164 300
e 164 305
e 164 317
e 164 321
e 164 322
e 164 328
e 164 367
e 164 369
e 164 373
e 164 379
e 164 381
e 164 385
e 164 391
e 164 401
e 164 415
e 164 423
e 164 433
e 164 440
e 164 449
e 164 452
e 164 473
e 164 482
e 164 496
e 164 501
e 164 503
e 164 507
e 164 515
e 164 519
e 164 530
e 164 532
e 164 537
e 164 538
e 164 542
e 164 546
e 164 548
e 164 554
e 164 609
e 164 611
e 164 615
e 164 618
e 164 630
e 164 632
e 164 651
e 164 666
e 164 669
e 164 672
e 164 693
e 164 699
e 164 750
e 164 758
e 164 760
e 164 788
e 164 792
e 164 793
e 164 806
e 164 817
e 164 828
e 164 830
e 164 834
e 164 843
e 164 848
e 164 913
e 164 919
e 164 920
e 164 957
e 164 960
e 164 965
e 164 966
e 165 178
e 165 189
e 165 211
e 165 215
e 165 221
e 165 226
e 165 234
e 165 253
e 165 255
e 165 278
e 165 288
e 165 294
e 165 296
e 165 326
e 165 342
e 165 343
e 165 345
e 165 347
e 165 377
e 165 379
e 165 386
e 165 389
e 165 390
e 165 412
e 165 415
e 165 437
e 165 492
e 165 498
e 165 503
e 165 504
e 165 507
e 165 521
e 165 537
e 165 551
e 165 556
e 165 574
e 165 596
e 165 601
e 165 606
e 165 611
e 165 616
e 165 617
e 165 619
e 165 622
e 165 640
e 165 641
e 165 656
e 165 661
e 165 666
e 165 670
e 165 671
e 165 679
e 165 685
e 165 694
e 165 713
e 165 720
e 165 727
e 165 739
e 165 748
e 165 753
e 165 758
e 165 763
e 165 774
e 165 778
e 165 781
e 165 789
e 165 801
e 165 818
e 165 822
e 165 837
e 165 847
e 165 861
e 165 874
e 165 893
e 165 926
e 165 938
e 165 945
e 165 946
e 165 968
e 165 976
e 165 978
e 165 993
e 165 998
e 166 178
e 166 188
e 166 222
e 166 237
e 166 270
e 166 279
e 166 280
e 166 290
e 166 297
e 166 299
e 166 305
e 166 310
e 166 314
e 166 318
e 166 327
e 166 346
e 166 350
e 166 376
e 166 387
e 166 398
e 166 406
e 166 421
e 166 435
e 166 444
e 166 463
e 166 492
e 166 502
e 166 509
e 166 512
e 166 513
e 166 516
e 166 534
e 166 546
e 166 554
e 166 573
e 166 583
e 166 594
e 166 623
e 166 651
e 166 654
e 166 659
e 166 672
e 166 679
e 166 693
e 166 704
e 166 717
e 166 718
e 166 727
e 166 738
e 166 741
e 166 771
e 166 774
e 166 777
e 166 778
e 166 780
e 166 785
e 166 791
e 166 793
e 166 807
e 166 818
e 166 836
e 166 841
e 166 858
e 166 865
e 166 869
e 166 870
e 166 879
e 166 911
e 166 921
e 166 923
e 166 932
e 166 937
e 166 941
e 166 942
e 166 944
e 166 950
e 166 953
e 166 954
e 166 957
e 166 963
e 166 968
e 166 970
e 166 979
e 166 981
e 166 983
e 166 986
e 166 996
e 167 168
e 167 177
e 167 188
e 167 190
e 167 192
e 167 212
e 167 215
e 167 247
e 167 255
e 167 258
e 167 264
e 167 265
e 167 286
e 167 294
e 167 296
e 167 303
e 167 315
e 167 328
e 167 342
e 167 344
e 167 356
e 167 358
e 167 362
e 167 379
e 167 382
e 167 388
e 167 409
e 167 411
e 167 423
e 167 443
e 167 445
e 167 456
e 167 467
e 167 482
e 167 484
e 167 488
e 167 510
e 167 526
e 167 541
e 167 575
e 167 577
e 167 604
e 167 622
e 167 633
e 167 637
e 167 643
e 167 651
e 167 666
e 167 676
e 167 683
e 167 686
e 167 687
e 167 688
e 167 694
e 167 723
e 167 728
e 167 745
e 167 767
e 167 768
e 167 775
e 167 782
e 167 804
e 167 843
e 167 852
e 167 858
e 167 859
e 167 860
e 167 890
e 167 917
e 167 926
e 167 931
e 167 937
e 167 946
e 167 950
e 167 953
e 167 963
e 167 967
e 167 985
e 167 995
e 168 173
e 168 183
e 168 187
e 168 191
e 168 192
e 168 195
e 168 197
e 168 209
e 168 219
e 168 252
e 168 253
e 168 255
e 168 262
e 168 265
e 168 290
e 168 292
e 168 307
e 168 314
e 168 324
e 168 338
e 168 340
e 168 362
e 168 370
e 168 376
e 168 394
e 168 407
e 168 414
e 168 417
e 168 419
e 168 424
e 168 431
e 168 437
e 168 448
e 168 463
e 168 473
e 168 475
e 168 477
e 168 488
e 168 498
e 168 518
e 168 522
e 168 539
e 168 547
e 168 574
e 168 581
e 168 583
e 168 591
e 168 593
e 168 595
e 168 616
e 168 627
e 168 629
e 168 643
e 168 645
e 168 652
e 168 662
e 168 663
e 168 669
e 168 676
e 168 681
e 168 690
e 168 708
e 168 709
e 168 717
e 168 733
e 168 748
e 168 768
e 168 771
e 168 773
e 168 779
e 168 842
e 168 865
e 168 872
e 168 876
e 168 882
e 168 896
e 168 901
e 168 905
e 168 906
e 168 913
e 168 917
e 168 921
e 168 947
e 168 995
e 168 1000
e 169 182
e 169 187
e 169 188
e 169 195
e 169 244
e 169 246
e 169 254
e 169 255
e 169 261
e 169 276
e 169 294
e 169 297
e 169 301
e 169 303
e 169 308
e 169 310
e 169 313
e 169 316
e 169 323
e 169 337
e 169 353
e 169 355
e 169 365
e 169 372
e 169 376
e 169 382
e 169 391
e 169 393
e 169 400
e 169 406
e 169 410
e 169 417
e 169 418
e 169 440
e 169 469
e 169 474
e 169 487
e 169 491
e 169 515
e 169 517
e 169 520
e 169 530
e 169 540
e 169 554
e 169 558
e 169 563
e 169 597
e 169 600
e 169 602
e 169 603
e 169 604
e 169 620
e 169 630
e 169 639
e 169 659
e 169 660
e 169 678
e 169 682
e 169 684
e 169 695
e 169 702
e 169 733
e 169 754
e 169 755
e 169 759
e 169 761
e 169 774
e 169 776
e 169 779
e 169 784
e 169 787
e 169 792
e 169 798
e 169 806
e 169 831
e 169 858
e 169 867
e 169 872
e 169 881
e 169 911
e 169 918
e 169 929
e 169 947
e 169 950
e 169 965
e 169 970
e 169 991
e 170 180
e 170 191
e 170 205
e 170 211
e 170 214
e 170 215
e 170 219
e 170 240
e 170 252
e 170 254
e 170 259
e 170 264
e 170 267
e 170 274
e 170 275
e 170 288
e 170 298
e 170 312
e 170 323
e 170 326
e 170 330
e 170 332
e 170 341
e 170 347
e 170 348
e 170 351
e 170 366
e 170 373
e 170 383
e 170 422
e 170 426
e 170 427
e 170 433
e 170 436
e 170 449
e 170 458
e 170 471
e 170 478
e 170 480
e 170 487
e 170 489
e 170 491
e 170 500
e 170 512
e 170 513
e 170 543
e 170 558
e 170 576
e 170 593
e 170 598
e 170 603
e 170 604
e 170 616
e 170 646
e 170 663
e 170 665
e 170 680
e 170 688
e 170 689
e 170 696
e 170 703
e 170 710
e 170 711
e 170 725
e 170 727
e 170 735
e 170 738
e 170 757
e 170 766
e 170 774
e 170 796
e 170 797
e 170 798
e 170 800
e 170 802
e 170 806
e 170 810
e 170 830
e 170 835
e 170 836
e 170 847
e 170 863
e 170 870
e 170 893
e 170 904
e 170 916
e 170 920
e 170 926
e 170 934
e 170 949
e 170 950
e 170 953
e 170 955
e 170 962
e 170 977
e 170 984
e 170 996
e 170 999
e 171 176
e 171 191
e 171 200
e 171 204
e 171 208
e 171 210
e 171 239
e 171 260
e 171 262
e 171 267
e 171 277
e 171 286
e 171 300
e 171 301
e 171 313
e 171 315
e 171 358
e 171 364
e 171 368
e 171 374
e 171 384
e 171 388
e 171 393
e 171 397
e 171 407
e 171 409
e 171 429
e 171 438
e 171 439
e 171 443
e 171 451
e 171 482
e 171 504
e 171 520
e 171 528
e 171 549
e 171 560
e 171 573
e 171 578
e 171 599
e 171 602
e 171 616
e 171 621
e 171 622
e 171 634
e 171 657
e 171 659
e 171 664
e 171 668
e 171 702
e 171 718
e 171 722
e 171 723
e 171 726
e 171 741
e 171 744
e 171 762
e 171 786
e 171 791
e 171 800
e 171 807
e 171 814
e 171 815
e 171 840
e 171 843
e 171 846
e 171 864
e 171 879
e 171 882
e 171 889
e 171 907
e 171 909
e 171 915
e 171 921
e 171 922
e 171 933
e 171 941
e 171 946
e 171 947
e 171 962
e 171 967
e 171 968
e 171 973
e 171 977
e 171 986
e 171 995
e 172 174
e 172 179
e 172 195
e 172 214
e 172 219
e 172 225
e 172 233
e 172 235
e 172 255
e 172 258
e 172 270
e 172 277
e 172 279
e 172 300
e 172 313
e 172 366
e 172 372
e 172 383
e 172 387
e 172 392
e 172 397
e 172 419
e 172 457
e 172 466
e 172 468
e 172 469
e 172 481
e 172 483
e 172 488
e 172 503
e 172 504
e 172 512
e 172 524
e 172 526
e 172 532
e 172 542
e 172 562
e 172 574
e 172 575
e 172 577
e 172 580
e 172 586
e 172 587
e 172 589
e 172 601
e 172 605
e 172 609
e 172 620
e 172 626
e 172 653
e 172 657
e 172 659
e 172 661
e 172 693
e 172 702
e 172 703
e 172 708
e 172 715
e 172 729
e 172 733
e 172 737
e 172 747
e 172 758
e 172 769
e 172 782
e 172 800
e 172 801
e 172 824
e 172 827
e 172 828
e 172 834
e 172 843
e 172 845
e 172 864
e 172 871
e 172 872
e 172 882
e 172 887
e 172 895
e 172 904
e 172 911
e 172 929
e 172 937
e 172 938
e 172 939
e 172 946
e 172 954
e 172 970
e 172 981
e 172 988
e 173 186
e 173 198
e 173 209
e 173 211
e 173 218
e 173 227
e 173 231
e 173 239
e 173 258
e 173 267
e 173 274
e 173 279
e 173 297
e 173 306
e 173 309
e 173 315
e 173 330
e 173 334
e 173 341
e 173 358
e 173 360
e 173 363
e 173 365
e 173 383
e 173 390
e 173 394
e 173 396
e 173 400
e 173 406
e 173 423
e 173 454
e 173 455
e 173 466
e 173 469
e 173 474
e 173 509
e 173 531
e 173 536
e 173 550
e 173 553
e 173 557
e 173 618
e 173 619
e 173 621
e 173 628
e 173 643
e 173 649
e 173 658
e 173 663
e 173 671
e 173 672
e 173 676
e 173 697
e 173 724
e 173 738
e 173 747
e 173 757
e 173 760
e 173 770
e 173 771
e 173 780
e 173 783
e 173 802
e 173 823
e 173 829
e 173 830
e 173 844
e 173 854
e 173 856
e 173 864
e 173 884
e 173 888
e 173 935
e 173 957
e 173 965
e 173 966
e 173 976
e 173 993
e 173 998
e 173 1000
e 174 182
e 174 189
e 174 193
e 174 208
e 174 210
e 174 214
e 174 220
e 174 221
e 174 231
e 174 236
e 174 249
e 174 283
e 174 293
e 174 294
e 174 300
e 174 301
e 174 303
e 174 308
e 174 313
e 174 317
e 174 322
e 174 340
e 174 350
e 174 355
e 174 362
e 174 363
e 174 368
e 174 369
e 174 374
e 174 376
e 174 397
e 174 418
e 174 427
e 174 441
e 174 452
e 174 458
e 174 467
e 174 471
e 174 488
e 174 502
e 174 512
e 174 522
e 174 538
e 174 544
e 174 564
e 174 573
e 174 574
e 174 577
e 174 579
e 174 600
e 174 604
e 174 611
e 174 634
e 174 637
e 174 674
e 174 679
e 174 683
e 174 699
e 174 714
e 174 730
e 174 744
e 174 746
e 174 749
e 174 792
e 174 813
e 174 814
e 174 836
e 174 838
e 174 848
e 174 862
e 174 863
e 174 868
e 174 875
e 174 878
e 174 880
e 174 913
e 174 922
e 174 929
e 174 930
e 174 933
e 174 948
e 174 952
e 174 966
e 174 967
e 174 972
e 174 973
e 174 990
e 174 993
e 175 177
e 175 184
e 175 191
e 175 201
e 175 211
e 175 213
e 175 214
e 175 220
e 175 221
e 175 230
e 175 235
e 175 246
e 175 253
e 175 268
e 175 269
e 175 282
e 175 283
e 175 294
e 175 316
e 175 329
e 175 333
e 175 347
e 175 355
e 175 358
e 175 360
e 175 368
e 175 382
e 175 385
e 175 401
e 175 418
e 175 425
e 175 429
e 175 441
e 175 445
e 175 467
e 175 468
e 175 477
e 175 479
e 175 481
e 175 488
e 175 494
e 175 496
e 175 520
e 175 521
e 175 530
e 175 536
e 175 543
e 175 546
e 175 592
e 175 603
e 175 609
e 175 622
e 175 627
e 175 638
e 175 646
e 175 650
e 175 676
e 175 683
e 175 702
e 175 708
e 175 709
e 175 717
e 175 724
e 175 728
e 175 743
e 175 747
e 175 758
e 175 770
e 175 774
e 175 799
e 175 821
e 175 824
e 175 839
e 175 856
e 175 859
e 175 863
e 175 886
e 175 894
e 175 897
e 175 900
e 175 905
e 175 931
e 175 932
e 175 939
e 175 941
e 175 973
e 175 976
e 175 991
e 175 992
e 175 996
e 176 189
e 176 218
e 176 244
e 176 262
e 176 264
e 176 298
e 176 326
e 176 332
e 176 333
e 176 334
e 176 341
e 176 344
e 176 376
e 176 393
e 176 399
e 176 414
e 176 423
e 176 425
e 176 427
e 176 438
e 176 440
e 176 456
e 176 462
e 176 464
e 176 466
e 176 484
e 176 489
e 176 492
e 176 493
e 176 497
e 176 506
e 176 514
e 176 523
e 176 533
e 176 547
e 176 548
e 176 567
e 176 572
e 176 578
e 176 598
e 176 605
e 176 620
e 176 627
e 176 650
e 176 658
e 176 684
e 176 686
e 176 704
e 176 709
e 176 713
e 176 724
e 176 730
e 176 735
e 176 741
e 176 759
e 176 764
e 176 786
e 176 787
e 176 791
e 176 794
e 176 797
e 176 809
e 176 819
e 176 822
e 176 837
e 176 847
e 176 869
e 176 870
e 176 888
e 176 891
e 176 895
e 176 902
e 176 911
e 176 926
e 176 929
e 176 972
e 176 973
e 177 179
e 177 184
e 177 187
e 177 204
e 177 205
e 177 206
e 177 221
e 177 233
e 177 237
e 177 247
e 177 248
e 177 256
e 177 264
e 177 267
e 177 274
e 177 302
e 177 310
e 177 311
e 177 314
e 177 315
e 177 326
e 177 329
e 177 343
e 177 348
e 177 352
e 177 366
e 177 368
e 177 369
e 177 371
e 177 372
e 177 388
e 177 428
e 177 462
e 177 469
e 177 478
e 177 490
e 177 494
e 177 506
e 177 513
e 177 516
e 177 530
e 177 553
e 177 561
e 177 569
e 177 610
e 177 612
e 177 629
e 177 635
e 177 644
e 177 645
e 177 694
e 177 696
e 177 707
e 177 721
e 177 727
e 177 741
e 177 742
e 177 744
e 177 749
e 177 750
e 177 782
e 177 799
e 177 800
e 177 806
e 177 832
e 177 845
e 177 855
e 177 866
e 177 868
e 177 886
e 177 903
e 177 927
e 177 938
e 177 939
e 177 971
e 177 987
e 177 996
e 178 186
e 178 198
e 178 218
e 178 229
e 178 230
e 178 242
e 178 253
e 178 254
e 178 259
e 178 261
e 178 266
e 178 269
e 178 271
e 178 274
e 178 283
e 178 287
e 178 290
e 178 299
e 178 317
e 178 318
e 178 328
e 178 378
e 178 383
e 178 401
e 178 404
e 178 416
e 178 430
e 178 438
e 178 446
e 178 448
e 178 451
e 178 456
e 178 458
e 178 468
e 178 478
e 178 490
e 178 514
e 178 528
e 178 532
e 178 534
e 178 535
e 178 593
e 178 633
e 178 643
e 178 645
e 178 665
e 178 687
e 178 692
e 178 705
e 178 708
e 178 721
e 178 723
e 178 736
e 178 738
e 178 740
e 178 747
e 178 749
e 178 768
e 178 774
e 178 781
e 178 783
e 178 822
e 178 839
e 178 841
e 178 845
e 178 863
e 178 885
e 178 890
e 178 898
e 178 908
e 178 909
e 178 927
e 178 942
e 178 947
e 178 951
e 178 955
e 178 970
e 178 971
e 178 980
e 178 982
e 178 984
e 178 998
e 179 185
e 179 207
e 179 208
e 179 213
e 179 229
e 179 236
e 179 242
e 179 246
e 179 256
e 179 259
e 179 260
e 179 272
e 179 278
e 179 284
e 179 287
e 179 294
e 179 307
e 179 308
e 179 316
e 179 323
e 179 327
e 179 341
e 179 355
e 179 358
e 179 368
e 179 371
e 179 382
e 179 383
e 179 384
e 179 402
e 179 406
e 179 413
e 179 459
e 179 465
e 179 466
e 179 489
e 179 490
e 179 501
e 179 508
e 179 524
e 179 525
e 179 531
e 179 551
e 179 562
e 179 565
e 179 571
e 179 579
e 179 585
e 179 591
e 179 627
e 179 642
e 179 671
e 179 684
e 179 690
e 179 713
e 179 730
e 179 745
e 179 759
e 179 782
e 179 788
e 179 807
e 179 808
e 179 823
e 179 825
e 179 831
e 179 855
e 179 862
e 179 871
e 179 910
e 179 939
e 179 957
e 179 968
e 179 974
e 179 1000
e 180 182
e 180 189
e 180 190
e 180 193
e 180 196
e 180 197
e 180 198
e 180 216
e 180 223
e 180 224
e 180 225
e 180 236
e 180 251
e 180 253
e 180 257
e 180 268
e 180 270
e 180 271
e 180 277
e 180 306
e 180 307
e 180 315
e 180 329
e 180 333
e 180 361
e 180 364
e 180 366
e 180 368
e 180 375
e 180 406
e 180 409
e 180 450
e 180 459
e 180 465
e 180 469
e 180 472
e 180 476
e 180 488
e 180 497
e 180 520
e 180 527
e 180 538
e 180 548
e 180 550
e 180 553
e 180 565
e 180 568
e 180 571
e 180 580
e 180 583
e 180 599
e 180 609
e 180 630
e 180 644
e 180 656
e 180 682
e 180 683
e 180 695
e 180 700
e 180 704
e 180 710
e 180 713
e 180 719
e 180 723
e 180 728
e 180 737
e 180 752
e 180 757
e 180 768
e 180 778
e 180 851
e 180 869
e 180 871
e 180 873
e 180 884
e 180 899
e 180 908
e 180 913
e 180 935
e 180 947
e 180 960
e 180 968
e 180 974
e 180 979
e 180 983
e 181 185
e 181 211
e 181 213
e 181 216
e 181 220
e 181 235
e 181 236
e 181 239
e 181 242
e 181 251
e 181 261
e 181 264
e 181 269
e 181 285
e 181 305
e 181 338
e 181 344
e 181 346
e 181 367
e 181 382
e 181 385
e 181 392
e 181 416
e 181 423
e 181 430
e 181 432
e 181 451
e 181 475
e 181 524
e 181 530
e 181 544
e 181 570
e 181 573
e 181 633
e 181 650
e 181 656
e 181 676
e 181 685
e 181 705
e 181 711
e 181 714
e 181 720
e 181 722
e 181 723
e 181 748
e 181 754
e 181 755
e 181 757
e 181 767
e 181 775
e 181 780
e 181 787
e 181 794
e 181 798
e 181 803
e 181 817
e 181 820
e 181 840
e 181 843
e 181 847
e 181 856
e 181 864
e 181 869
e 181 875
e 181 887
e 181 897
e 181 918
e 181 923
e 181 933
e 181 940
e 181 958
e 181 962
e 181 966
e 181 971
e 181 983
e 181 995
e 181 996
e 181 997
e 181 999
e 181 1000
e 182 190
e 182 199
e 182 226
e 182 227
e 182 233
e 182 236
e 182 244
e 182 247
e 182 249
e 182 250
e 182 252
e 182 257
e 182 262
e 182 281
e 182 283
e 182 316
e 182 317
e 182 322
e 182 324
e 182 327
e 182 334
e 182 339
e 182 344
e 182 346
e 182 368
e 182 379
e 182 383
e 182 391
e 182 393
e 182 404
e 182 414
e 182 421
e 182 435
e 182 443
e 182 453
e 182 465
e 182 491
e 182 509
e 182 515
e 182 516
e 182 524
e 182 535
e 182 552
e 182 555
e 182 558
e 182 564
e 182 567
e 182 595
e 182 619
e 182 642
e 182 679
e 182 685
e 182 686
e 182 706
e 182 708
e 182 728
e 182 738
e 182 748
e 182 765
e 182 769
e 182 776
e 182 785
e 182 786
e 182 797
e 182 804
e 182 847
e 182 863
e 182 890
e 182 897
e 182 914
e 182 942
e 182 956
e 182 962
e 182 973
e 182 979
e 182 982
e 182 984
e 182 986
e 182 997
e 183 193
e 183 195
e 183 205
e 183 216
e 183 220
e 183 235
e 183 241
e 183 284
e 183 300
e 183 314
e 183 325
e 183 326
e 183 355
e 183 359
e 183 367
e 183 370
e 183 374
e 183 408
e 183 409
e 183 415
e 183 419
e 183 430
e 183 435
e 183 452
e 183 464
e 183 471
e 183 496
e 183 500
e 183 506
e 183 509
e 183 519
e 183 532
e 183 549
e 183 557
e 183 575
e 183 584
e 183 591
e 183 604
e 183 607
e 183 611
e 183 612
e 183 613
e 183 648
e 183 649
e 183 652
e 183 662
e 183 666
e 183 667
e 183 688
e 183 731
e 183 734
e 183 738
e 183 739
e 183 750
e 183 757
e 183 759
e 183 766
e 183 770
e 183 773
e 183 777
e 183 795
e 183 801
e 183 803
e 183 816
e 183 825
e 183 827
e 183 839
e 183 846
e 183 852
e 183 876
e 183 880
e 183 883
e 183 888
e 183 892
e 183 895
e 183 933
e 183 936
e 183 937
e 183 944
e 183 949
e 183 956
e 183 960
e 183 968
e 184 189
e 184 194
e 184 196
e 184 205
e 184 209
e 184 211
e 184 217
e 184 247
e 184 253
e 184 263
e 184 281
e 184 284
e 184 286
e 184 320
e 184 329
e 184 334
e 184 356
e 184 360
e 184 365
e 184 366
e 184 368
e 184 372
e 184 378
e 184 396
e 184 406
e 184 435
e 184 457
e 184 463
e 184 469
e 184 500
e 184 506
e 184 537
e 184 557
e 184 566
e 184 574
e 184 579
e 184 601
e 184 637
e 184 641
e 184 652
e 184 654
e 184 660
e 184 663
e 184 684
e 184 687
e 184 695
e 184 698
e 184 703
e 184 711
e 184 724
e 184 728
e 184 730
e 184 731
e 184 733
e 184 739
e 184 748
e 184 772
e 184 781
e 184 785
e 184 796
e 184 830
e 184 831
e 184 833
e 184 849
e 184 861
e 184 871
e 184 881
e 184 913
e 184 920
e 184 922
e 184 926
e 184 935
e 184 943
e 184 986
e 185 188
e 185 190
e 185 191
e 185 197
e 185 201
e 185 240
e 185 272
e 185 273
e 185 282
e 185 283
e 185 299
e 185 302
e 185 320
e 185 327
e 185 328
e 185 330
e 185 334
e 185 343
e 185 347
e 185 368
e 185 370
e 185 380
e 185 404
e 185 405
e 185 407
e 185 415
e 185 426
e 185 431
e 185 438
e 185 447
e 185 459
e 185 468
e 185 471
e 185 479
e 185 520
e 185 522
e 185 529
e 185 553
e 185 568
e 185 587
e 185 599
e 185 612
e 185 616
e 185 637
e 185 656
e 185 662
e 185 669
e 185 670
e 185 681
e 185 687
e 185 692
e 185 698
e 185 705
e 185 722
e 185 744
e 185 748
e 185 753
e 185 759
e 185 783
e 185 802
e 185 807
e 185 820
e 185 831
e 185 847
e 185 851
e 185 853
e 185 857
e 185 874
e 185 883
e 185 919
e 185 921
e 185 929
e 185 937
e 185 938
e 185 940
e 185 941
e 185 950
e 185 978
e 185 979
e 185 994
e 186 189
e 186 197
e 186 201
e 186 206
e 186 215
e 186 220
e 186 232
e 186 245
e 186 257
e 186 264
e 186 265
e 186 271
e 186 273
e 186 281
e 186 282
e 186 283
e 186 284
e 186 286
e 186 290
e 186 308
e 186 311
e 186 312
e 186 313
e 186 320
e 186 323
e 186 325
e 186 337
e 186 338
e 186 339
e 186 348
e 186 390
e 186 400
e 186 401
e 186 426
e 186 432
e 186 435
e 186 465
e 186 472
e 186 473
e 186 490
e 186 496
e 186 502
e 186 514
e 186 527
e 186 537
e 186 544
e 186 545
e 186 546
e 186 570
e 186 577
e 186 595
e 186 624
e 186 640
e 186 643
e 186 655
e 186 661
e 186 663
e 186 682
e 186 692
e 186 698
e 186 715
e 186 718
e 186 721
e 186 724
e 186 733
e 186 743
e 186 760
e 186 767
e 186 775
e 186 780
e 186 785
e 186 788
e 186 796
e 186 798
e 186 808
e 186 832
e 186 851
e 186 865
e 186 877
e 186 878
e 186 889
e 186 913
e 186 919
e 186 925
e 186 926
e 186 933
e 186 946
e 186 948
e 186 950
e 186 955
e 186 969
e 187 215
e 187 218
e 187 221
e 187 229
e 187 243
e 187 250
e 187 253
e 187 258
e 187 260
e 187 300
e 187 302
e 187 322
e 187 328
e 187 333
e 187 334
e 187 337
e 187 347
e 187 367
e 187 370
e 187 371
e 187 381
e 187 382
e 187 389
e 187 429
e 187 441
e 187 452
e 187 460
e 187 464
e 187 475
e 187 486
e 187 522
e 187 537
e 187 560
e 187 569
e 187 593
e 187 607
e 187 614
e 187 629
e 187 638
e 187 644
e 187 653
e 187 655
e 187 657
e 187 661
e 187 668
e 187 679
e 187 688
e 187 691
e 187 700
e 187 701
e 187 729
e 187 730
e 187 740
e 187 751
e 187 755
e 187 756
e 187 772
e 187 800
e 187 805
e 187 842
e 187 853
e 187 857
e 187 869
e 187 872
e 187 904
e 187 926
e 187 937
e 187 940
e 187 962
e 187 964
e 187 970
e 187 974
e 187 978
e 187 980
e 187 982
e 187 986
e 187 996
e 188 189
e 188 200
e 188 210
e 188 211
e 188 217
e 188 225
e 188 230
e 188 231
e 188 243
e 188 255
e 188 257
e 188 271
e 188 279
e 188 314
e 188 331
e 188 333
e 188 339
e 188 344
e 188 348
e 188 364
e 188 381
e 188 386
e 188 387
e 188 407
e 188 412
e 188 416
e 188 417
e 188 434
e 188 442
e 188 451
e 188 457
e 188 458
e 188 462
e 188 483
e 188 485
e 188 489
e 188 491
e 188 495
e 188 496
e 188 511
e 188 521
e 188 543
e 188 548
e 188 568
e 188 573
e 188 575
e 188 586
e 188 605
e 188 606
e 188 615
e 188 616
e 188 618
e 188 621
e 188 640
e 188 643
e 188 653
e 188 679
e 188 688
e 188 696
e 188 706
e 188 749
e 188 761
e 188 762
e 188 763
e 188 765
e 188 774
e 188 783
e 188 789
e 188 792
e 188 806
e 188 827
e 188 830
e 188 844
e 188 850
e 188 853
e 188 856
e 188 874
e 188 878
e 188 880
e 188 881
e 188 894
e 188 897
e 188 910
e 188 915
e 188 932
e 188 940
e 188 946
e 188 947
e 188 959
e 188 977
e 188 980
e 188 995
e 189 203
e 189 210
e 189 230
e 189 256
e 189 262
e 189 266
e 189 270
e 189 277
e 189 285
e 189 299
e 189 302
e 189 303
e 189 329
e 189 334
e 189 358
e 189 363
e 189 370
e 189 371
e 189 383
e 189 388
e 189 398
e 189 405
e 189 408
e 189 422
e 189 430
e 189 437
e 189 439
e 189 446
e 189 483
e 189 486
e 189 491
e 189 504
e 189 525
e 189 531
e 189 533
e 189 535
e 189 546
e 189 550
e 189 555
e 189 569
e 189 580
e 189 607
e 189 612
e 189 626
e 189 631
e 189 658
e 189 672
e 189 673
e 189 674
e 189 675
e 189 682
e 189 686
e 189 698
e 189 735
e 189 736
e 189 773
e 189 782
e 189 785
e 189 790
e 189 792
e 189 802
e 189 803
e 189 813
e 189 814
e 189 815
e 189 817
e 189 825
e 189 827
e 189 841
e 189 858
e 189 870
e 189 896
e 189 904
e 189 910
e 189 911
e 189 912
e 189 936
e 189 944
e 189 957
e 189 977
e 189 984
e 189 987
e 190 202
e 190 208
e 190 217
e 190 225
e 190 230
e 190 233
e 190 237
e 190 241
e 190 250
e 190 251
e 190 255
e 190 270
e 190 286
e 190 289
e 190 290
e 190 301
e 190 302
e 190 311
e 190 318
e 190 339
e 190 345
e 190 348
e 190 353
e 190 354
e 190 355
e 190 359
e 190 391
e 190 398
e 190 413
e 190 419
e 190 438
e 190 441
e 190 444
e 190 450
e 190 462
e 190 470
e 190 483
e 190 487
e 190 491
e 190 500
e 190 504
e 190 514
e 190 516
e 190 530
e 190 538
e 190 542
e 190 547
e 190 564
e 190 566
e 190 593
e 190 594
e 190 598
e 190 602
e 190 620
e 190 624
e 190 636
e 190 643
e 190 646
e 190 657
e 190 662
e 190 666
e 190 686
e 190 689
e 190 697
e 190 728
e 190 741
e 190 751
e 190 759
e 190 796
e 190 801
e 190 812
e 190 818
e 190 819
e 190 833
e 190 835
e 190 844
e 190 847
e 190 856
e 190 864
e 190 873
e 190 880
e 190 898
e 190 925
e 190 943
e 190 947
e 190 959
e 190 988
e 191 204
e 191 218
e 191 220
e 191 228
e 191 238
e 191 239
e 191 266
e 191 277
e 191 283
e 191 287
e 191 288
e 191 300
e 191 325
e 191 357
e 191 369
e 191 377
e 191 382
e 191 387
e 191 388
e 191 400
e 191 445
e 191 471
e 191 514
e 191 516
e 191 548
e 191 562
e 191 594
e 191 620
e 191 638
e 191 659
e 191 664
e 191 670
e 191 674
e 191 676
e 191 677
e 191 689
e 191 700
e 191 702
e 191 728
e 191 733
e 191 738
e 191 741
e 191 750
e 191 796
e 191 798
e 191 810
e 191 814
e 191 822
e 191 828
e 191 835
e 191 842
e 191 852
e 191 858
e 191 860
e 191 868
e 191 890
e 191 893
e 191 896
e 191 898
e 191 902
e 191 903
e 191 906
e 191 908
e 191 921
e 191 924
e 191 932
e 191 965
e 191 969
e 191 978
e 191 981
e 191 991
e 191 994
e 191 996
e 192 199
e 192 216
e 192 217
e 192 219
e 192 221
e 192 227
e 192 239
e 192 250
e 192 267
e 192 282
e 192 283
e 192 298
e 192 306
e 192 308
e 192 319
e 192 338
e 192 344
e 192 372
e 192 376
e 192 379
e 192 386
e 192 388
e 192 395
e 192 398
e 192 404
e 192 412
e 192 430
e 192 437
e 192 446
e 192 455
e 192 457
e 192 459
e 192 466
e 192 467
e 192 468
e 192 471
e 192 476
e 192 482
e 192 500
e 192 517
e 192 533
e 192 558
e 192 571
e 192 579
e 192 585
e 192 591
e 192 596
e 192 602
e 192 605
e 192 609
e 192 622
e 192 624
e 192 633
e 192 656
e 192 661
e 192 678
e 192 687
e 192 689
e 192 696
e 192 699
e 192 701
e 192 702
e 192 710
e 192 723
e 192 730
e 192 745
e 192 755
e 192 759
e 192 762
e 192 763
e 192 765
e 192 771
e 192 803
e 192 812
e 192 813
e 192 819
e 192 821
e 192 834
e 192 835
e 192 839
e 192 889
e 192 896
e 192 902
e 192 906
e 192 912
e 192 917
e 192 948
e 192 955
e 192 956
e 192 968
e 192 969
e 192 974
e 192 976
e 192 995
e 192 997
e 193 198
e 193 201
e 193 202
e 193 203
e 193 204
e 193 207
e 193 209
e 193 237
e 193 238
e 193 267
e 193 276
e 193 280
e 193 293
e 193 298
e 193 300
e 193 304
e 193 311
e 193 330
e 193 355
e 193 358
e 193 363
e 193 374
e 193 375
e 193 378
e 193 380
e 193 381
e 193 400
e 193 418
e 193 419
e 193 427
e 193 443
e 193 444
e 193 445
e 193 462
e 193 470
e 193 505
e 193 522
e 193 526
e 193 528
e 193 535
e 193 543
e 193 553
e 193 556
e 193 572
e 193 578
e 193 582
e 193 593
e 193 606
e 193 614
e 193 618
e 193 647
e 193 657
e 193 666
e 193 671
e 193 675
e 193 706
e 193 714
e 193 717
e 193 723
e 193 725
e 193 735
e 193 737
e 193 755
e 193 766
e 193 783
e 193 784
e 193 790
e 193 796
e 193 798
e 193 799
e 193 804
e 193 805
e 193 806
e 193 822
e 193 830
e 193 838
e 193 851
e 193 873
e 193 885
e 193 903
e 193 911
e 193 928
e 193 929
e 193 933
e 193 951
e 193 956
e 193 959
e 193 974
e 193 984
e 194 201
e 194 217
e 194 218
e 194 222
e 194 237
e 194 273
e 194 280
e 194 286
e 194 298
e 194 299
e 194 300
e 194 305
e 194 309
e 194 312
e 194 316
e 194 318
e 194 323
e 194 327
e 194 329
e 194 338
e 194 353
e 194 360
e 194 366
e 194 370
e 194 374
e 194 394
e 194 407
e 194 418
e 194 421
e 194 427
e 194 438
e 194 471
e 194 472
e 194 485
e 194 486
e 194 488
e 194 489
e 194 496
e 194 499
e 194 508
e 194 545
e 194 558
e 194 566
e 194 578
e 194 579
e 194 580
e 194 593
e 194 603
e 194 605
e 194 631
e 194 632
e 194 649
e 194 657
e 194 667
e 194 675
e 194 680
e 194 701
e 194 726
e 194 740
e 194 744
e 194 752
e 194 783
e 194 800
e 194 802
e 194 808
e 194 819
e 194 835
e 194 847
e 194 859
e 194 870
e 194 873
e 194 890
e 194 896
e 194 907
e 194 909
e 194 928
e 194 937
e 194 941
e 194 948
e 194 966
e 194 974
e 194 996
e 194 1000
e 195 196
e 195 206
e 195 209
e 195 216
e 195 235
e 195 244
e 195 259
e 195 262
e 195 268
e 195 272
e 195 278
e 195 288
e 195 289
e 195 290
e 195 291
e 195 303
e 195 331
e 195 339
e 195 346
e 195 354
e 195 361
e 195 369
e 195 375
e 195 384
e 195 419
e 195 435
e 195 445
e 195 447
e 195 449
e 195 452
e 195 477
e 195 497
e 195 507
e 195 510
e 195 512
e 195 525
e 195 535
e 195 542
e 195 555
e 195 558
e 195 577
e 195 578
e 195 583
e 195 584
e 195 591
e 195 596
e 195 599
e 195 614
e 195 629
e 195 632
e 195 636
e 195 638
e 195 639
e 195 643
e 195 644
e 195 661
e 195 669
e 195 672
e 195 673
e 195 675
e 195 677
e 195 678
e 195 679
e 195 681
e 195 720
e 195 731
e 195 732
e 195 754
e 195 764
e 195 788
e 195 789
e 195 793
e 195 806
e 195 819
e 195 826
e 195 830
e 195 844
e 195 870
e 195 900
e 195 920
e 195 921
e 195 926
e 195 930
e 195 942
e 195 951
e 195 956
e 195 958
e 195 965
e 195 972
e 195 973
e 195 974
e 195 979
e 195 980
e 196 215
e 196 216
e 196 221
e 196 222
e 196 251
e 196 270
e 196 282
e 196 291
e 196 295
e 196 298
e 196 304
e 196 308
e 196 319
e 196 327
e 196 346
e 196 350
e 196 352
e 196 361
e 196 362
e 196 376
e 196 401
e 196 403
e 196 404
e 196 410
e 196 415
e 196 427
e 196 428
e 196 430
e 196 432
e 196 443
e 196 444
e 196 455
e 196 462
e 196 466
e 196 468
e 196 488
e 196 492
e 196 509
e 196 521
e 196 522
e 196 528
e 196 529
e 196 548
e 196 572
e 196 578
e 196 592
e 196 594
e 196 600
e 196 621
e 196 630
e 196 638
e 196 641
e 196 642
e 196 644
e 196 646
e 196 653
e 196 664
e 196 667
e 196 674
e 196 677
e 196 685
e 196 728
e 196 737
e 196 743
e 196 747
e 196 748
e 196 768
e 196 791
e 196 792
e 196 799
e 196 811
e 196 827
e 196 831
e 196 834
e 196 864
e 196 865
e 196 868
e 196 870
e 196 877
e 196 878
e 196 884
e 196 892
e 196 896
e 196 921
e 196 924
e 196 929
e 196 941
e 196 943
e 196 968
e 196 977
e 196 994
e 197 200
e 197 204
e 197 227
e 197 228
e 197 244
e 197 249
e 197 263
e 197 265
e 197 269
e 197 275
e 197 299
e 197 305
e 197 331
e 197 338
e 197 351
e 197 359
e 197 360
e 197 374
e 197 394
e 197 399
e 197 400
e 197 402
e 197 403
e 197 414
e 197 450
e 197 456
e 197 465
e 197 466
e 197 468
e 197 491
e 197 493
e 197 503
e 197 504
e 197 505
e 197 514
e 197 515
e 197 534
e 197 547
e 197 554
e 197 559
e 197 578
e 197 595
e 197 596
e 197 605
e 197 607
e 197 615
e 197 627
e 197 629
e 197 640
e 197 645
e 197 647
e 197 661
e 197 664
e 197 673
e 197 677
e 197 679
e 197 680
e 197 687
e 197 700
e 197 701
e 197 705
e 197 724
e 197 735
e 197 752
e 197 765
e 197 770
e 197 783
e 197 785
e 197 795
e 197 820
e 197 834
e 197 840
e 197 842
e 197 850
e 197 871
e 197 896
e 197 903
e 197 906
e 197 924
e 197 934
e 197 936
e 197 954
e 197 958
e 197 965
e 197 966
e 197 971
e 197 973
e 197 981
e 197 987
e 197 989
e 197 993
e 198 210
e 198 230
e 198 243
e 198 248
e 198 257
e 198 258
e 198 284
e 198 290
e 198 297
e 198 310
e 198 320
e 198 327
e 198 328
e 198 331
e 198 335
e 198 352
e 198 353
e 198 369
e 198 372
e 198 379
e 198 386
e 198 397
e 198 399
e 198 401
e 198 407
e 198 411
e 198 417
e 198 443
e 198 448
e 198 452
e 198 456
e 198 462
e 198 466
e 198 506
e 198 519
e 198 528
e 198 533
e 198 547
e 198 558
e 198 559
e 198 568
e 198 581
e 198 589
e 198 600
e 198 652
e 198 653
e 198 658
e 198 664
e 198 671
e 198 682
e 198 685
e 198 688
e 198 713
e 198 720
e 198 726
e 198 744
e 198 747
e 198 749
e 198 756
e 198 758
e 198 759
e 198 760
e 198 766
e 198 791
e 198 802
e 198 805
e 198 811
e 198 819
e 198 824
e 198 825
e 198 827
e 198 830
e 198 850
e 198 857
e 198 867
e 198 869
e 198 882
e 198 884
e 198 889
e 198 906
e 198 931
e 198 933
e 198 940
e 198 951
e 198 956
e 198 998
e 198 999
e 199 208
e 199 223
e 199 228
e 199 242
e 199 255
e 199 292
e 199 316
e 199 325
e 199 358
e 199 363
e 199 375
e 199 384
e 199 407
e 199 422
e 199 448
e 199 464
e 199 495
e 199 500
e 199 517
e 199 519
e 199 543
e 199 590
e 199 593
e 199 596
e 199 603
e 199 612
e 199 661
e 199 667
e 199 676
e 199 706
e 199 709
e 199 713
e 199 755
e 199 775
e 199 791
e 199 793
e 199 804
e 199 810
e 199 828
e 199 835
e 199 839
e 199 849
e 199 858
e 199 867
e 199 878
e 199 898
e 199 912
e 199 924
e 199 948
e 199 949
e 199 952
e 199 962
e 199 967
e 199 968
e 199 972
e 199 973
e 199 975
e 199 993
e 200 202
e 200 206
e 200 209
e 200 212
e 200 217
e 200 227
e 200 236
e 200 262
e 200 266
e 200 272
e 200 281
e 200 282
e 200 284
e 200 288
e 200 297
e 200 304
e 200 321
e 200 332
e 200 333
e 200 344
e 200 375
e 200 390
e 200 393
e 200 400
e 200 404
e 200 417
e 200 431
e 200 439
e 200 441
e 200 443
e 200 447
e 200 450
e 200 454
e 200 476
e 200 483
e 200 491
e 200 496
e 200 505
e 200 512
e 200 516
e 200 526
e 200 533
e 200 537
e 200 550
e 200 561
e 200 562
e 200 567
e 200 580
e 200 613
e 200 619
e 200 645
e 200 646
e 200 668
e 200 674
e 200 677
e 200 679
e 200 687
e 200 700
e 200 707
e 200 727
e 200 740
e 200 764
e 200 801
e 200 808
e 200 809
e 200 816
e 200 823
e 200 826
e 200 839
e 200 855
e 200 870
e 200 875
e 200 898
e 200 900
e 200 902
e 200 904
e 200 907
e 200 921
e 200 958
e 200 984
e 200 989
e 200 993
e 200 997
e 201 207
e 201 223
e 201 250
e 201 254
e 201 269
e 201 290
e 201 297
e 201 309
e 201 312
e 201 345
e 201 371
e 201 377
e 201 386
e 201 424
e 201 435
e 201 460
e 201 479
e 201 480
e 201 499
e 201 506
e 201 528
e 201 563
e 201 574
e 201 602
e 201 619
e 201 622
e 201 631
e 201 674
e 201 675
e 201 678
e 201 685
e 201 697
e 201 699
e 201 700
e 201 708
e 201 717
e 201 718
e 201 740
e 201 754
e 201 759
e 201 771
e 201 788
e 201 791
e 201 805
e 201 817
e 201 831
e 201 834
e 201 851
e 201 855
e 201 858
e 201 864
e 201 901
e 201 905
e 201 917
e 201 922
e 201 932
e 201 936
e 201 949
e 201 956
e 201 961
e 201 974
e 201 978
e 201 981
e 201 989
e 202 207
e 202 223
e 202 242
e 202 244
e 202 253
e 202 265
e 202 272
e 202 296
e 202 304
e 202 309
e 202 312
e 202 314
e 202 320
e 202 347
e 202 361
e 202 366
e 202 373
e 202 386
e 202 388
e 202 389
e 202 400
e 202 416
e 202 430
e 202 434
e 202 441
e 202 457
e 202 490
e 202 493
e 202 509
e 202 526
e 202 530
e 202 539
e 202 544
e 202 562
e 202 567
e 202 569
e 202 582
e 202 583
e 202 601
e 202 618
e 202 622
e 202 635
e 202 641
e 202 647
e 202 648
e 202 666
e 202 679
e 202 690
e 202 704
e 202 706
e 202 725
e 202 731
e 202 734
e 202 735
e 202 748
e 202 789
e 202 791
e 202 792
e 202 801
e 202 820
e 202 865
e 202 877
e 202 885
e 202 892
e 202 899
e 202 905
e 202 910
e 202 930
e 202 934
e 202 937
e 202 953
e 202 977
e 202 982
e 203 218
e 203 233
e 203 238
e 203 251
e 203 255
e 203 263
e 203 267
e 203 278
e 203 283
e 203 286
e 203 287
e 203 308
e 203 314
e 203 316
e 203 318
e 203 328
e 203 334
e 203 345
e 203 370
e 203 375
e 203 390
e 203 394
e 203 404
e 203 407
e 203 413
e 203 416
e 203 418
e 203 436
e 203 440
e 203 441
e 203 442
e 203 446
e 203 469
e 203 477
e 203 479
e 203 496
e 203 499
e 203 528
e 203 540
e 203 549
e 203 557
e 203 569
e 203 585
e 203 589
e 203 607
e 203 641
e 203 644
e 203 645
e 203 646
e 203 649
e 203 661
e 203 679
e 203 680
e 203 688
e 203 714
e 203 717
e 203 725
e 203 755
e 203 764
e 203 769
e 203 782
e 203 799
e 203 809
e 203 811
e 203 814
e 203 818
e 203 824
e 203 855
e 203 859
e 203 861
e 203 864
e 203 884
e 203 886
e 203 892
e 203 907
e 203 923
e 203 932
e 203 933
e 203 939
e 203 940
e 203 955
e 203 985
e 203 994
e 203 1000
e 204 210
e 204 222
e 204 235
e 204 258
e 204 276
e 204 281
e 204 282
e 204 292
e 204 294
e 204 296
e 204 307
e 204 313
e 204 317
e 204 323
e 204 326
e 204 330
e 204 353
e 204 360
e 204 368
e 204 373
e 204 379
e 204 407
e 204 409
e 204 423
e 204 440
e 204 442
e 204 446
e 204 466
e 204 474
e 204 479
e 204 489
e 204 492
e 204 494
e 204 500
e 204 501
e 204 523
e 204 537
e 204 549
e 204 566
e 204 570
e 204 576
e 204 578
e 204 613
e 204 614
e 204 624
e 204 634
e 204 668
e 204 679
e 204 693
e 204 699
e 204 727
e 204 739
e 204 743
e 204 752
e 204 768
e 204 781
e 204 814
e 204 823
e 204 828
e 204 855
e 204 864
e 204 866
e 204 898
e 204 920
e 204 927
e 204 931
e 204 952
e 204 954
e 204 973
e 204 981
e 204 985
e 204 986
e 204 1000
e 205 215
e 205 226
e 205 227
e 205 234
e 205 241
e 205 249
e 205 264
e 205 265
e 205 273
e 205 282
e 205 285
e 205 287
e 205 303
e 205 310
e 205 313
e 205 314
e 205 325
e 205 327
e 205 332
e 205 336
e 205 337
e 205 342
e 205 355
e 205 362
e 205 369
e 205 373
e 205 376
e 205 391
e 205 408
e 205 422
e 205 424
e 205 426
e 205 427
e 205 449
e 205 468
e 205 482
e 205 496
e 205 511
e 205 523
e 205 564
e 205 565
e 205 568
e 205 587
e 205 603
e 205 614
e 205 643
e 205 661
e 205 689
e 205 699
e 205 710
e 205 731
e 205 739
e 205 756
e 205 787
e 205 801
e 205 875
e 205 884
e 205 892
e 205 899
e 205 904
e 205 922
e 205 923
e 205 937
e 205 940
e 205 945
e 205 946
e 205 970
e 205 973
e 205 974
e 205 977
e 205 982
e 205 987
e 206 215
e 206 228
e 206 248
e 206 261
e 206 271
e 206 288
e 206 289
e 206 300
e 206 349
e 206 357
e 206 368
e 206 370
e 206 382
e 206 383
e 206 400
e 206 403
e 206 420
e 206 427
e 206 432
e 206 434
e 206 440
e 206 444
e 206 452
e 206 466
e 206 485
e 206 488
e 206 495
e 206 501
e 206 502
e 206 504
e 206 511
e 206 517
e 206 528
e 206 530
e 206 545
e 206 553
e 206 578
e 206 583
e 206 599
e 206 600
e 206 603
e 206 609
e 206 611
e 206 625
e 206 637
e 206 669
e 206 690
e 206 698
e 206 706
e 206 713
e 206 731
e 206 733
e 206 735
e 206 739
e 206 740
e 206 742
e 206 743
e 206 747
e 206 750
e 206 763
e 206 772
e 206 786
e 206 796
e 206 812
e 206 814
e 206 820
e 206 837
e 206 876
e 206 895
e 206 901
e 206 902
e 206 942
e 206 948
e 206 952
e 206 965
e 206 968
e 206 998
e 206 1000
e 207 208
e 207 209
e 207 225
e 207 239
e 207 240
e 207 263
e 207 269
e 207 288
e 207 294
e 207 306
e 207 315
e 207 324
e 207 330
e 207 342
e 207 362
e 207 364
e 207 387
e 207 393
e 207 396
e 207 399
e 207 402
e 207 403
e 207 409
e 207 415
e 207 424
e 207 438
e 207 462
e 207 464
e 207 473
e 207 483
e 207 495
e 207 505
e 207 510
e 207 519
e 207 533
e 207 534
e 207 575
e 207 579
e 207 585
e 207 595
e 207 596
e 207 614
e 207 619
e 207 625
e 207 626
e 207 636
e 207 638
e 207 654
e 207 659
e 207 667
e 207 670
e 207 686
e 207 687
e 207 688
e 207 702
e 207 737
e 207 740
e 207 744
e 207 750
e 207 768
e 207 786
e 207 795
e 207 803
e 207 805
e 207 806
e 207 815
e 207 816
e 207 820
e 207 849
e 207 854
e 207 858
e 207 879
e 207 888
e 207 892
e 207 898
e 207 905
e 207 915
e 207 917
e 207 932
e 207 936
e 207 946
e 207 949
e 207 954
e 207 969
e 207 972
e 207 973
e 207 987
e 207 997
e 208 209
e 208 222
e 208 231
e 208 242
e 208 249
e 208 267
e 208 269
e 208 283
e 208 292
e 208 295
e 208 301
e 208 302
e 208 304
e 208 311
e 208 321
e 208 333
e 208 334
e 208 361
e 208 362
e 208 363
e 208 374
e 208 380
e 208 382
e 208 386
e 208 392
e 208 396
e 208 414
e 208 425
e 208 440
e 208 442
e 208 444
e 208 468
e 208 492
e 208 493
e 208 498
e 208 500
e 208 503
e 208 512
e 208 515
e 208 520
e 208 524
e 208 528
e 208 540
e 208 543
e 208 545
e 208 569
e 208 588
e 208 616
e 208 624
e 208 631
e 208 658
e 208 663
e 208 685
e 208 691
e 208 712
e 208 721
e 208 726
e 208 729
e 208 739
e 208 743
e 208 745
e 208 749
e 208 772
e 208 787
e 208 834
e 208 839
e 208 840
e 208 846
e 208 852
e 208 856
e 208 862
e 208 898
e 208 909
e 208 913
e 208 926
e 208 930
e 208 931
e 208 955
e 208 960
e 208 964
e 208 987
e 208 988
e 208 989
e 208 992
e 208 998
e 209 233
e 209 235
e 209 238
e 209 268
e 209 278
e 209 279
e 209 286
e 209 293
e 209 321
e 209 325
e 209 347
e 209 384
e 209 393
e 209 417
e 209 421
e 209 427
e 209 439
e 209 445
e 209 447
e 209 448
e 209 456
e 209 469
e 209 473
e 209 488
e 209 509
e 209 526
e 209 530
e 209 531
e 209 554
e 209 557
e 209 558
e 209 567
e 209 573
e 209 585
e 209 591
e 209 592
e 209 595
e 209 604
e 209 640
e 209 650
e 209 655
e 209 656
e 209 663
e 209 664
e 209 672
e 209 692
e 209 711
e 209 721
e 209 724
e 209 729
e 209 742
e 209 747
e 209 754
e 209 783
e 209 788
e 209 806
e 209 812
e 209 820
e 209 828
e 209 839
e 209 854
e 209 855
e 209 866
e 209 870
e 209 875
e 209 881
e 209 885
e 209 902
e 209 936
e 209 942
e 209 955
e 209 964
e 209 972
e 209 983
e 209 992
e 210 220
e 210 224
e 210 227
e 210 254
e 210 255
e 210 258
e 210 261
e 210 279
e 210 287
e 210 301
e 210 303
e 210 312
e 210 327
e 210 340
e 210 351
e 210 355
e 210 357
e 210 378
e 210 387
e 210 395
e 210 407
e 210 415
e 210 416
e 210 428
e 210 431
e 210 432
e 210 434
e 210 436
e 210 448
e 210 454
e 210 483
e 210 484
e 210 503
e 210 509
e 210 514
e 210 517
e 210 524
e 210 525
e 210 540
e 210 544
e 210 554
e 210 555
e 210 568
e 210 577
e 210 593
e 210 598
e 210 602
e 210 626
e 210 630
e 210 642
e 210 647
e 210 651
e 210 669
e 210 674
e 210 676
e 210 682
e 210 689
e 210 703
e 210 715
e 210 762
e 210 764
e 210 774
e 210 791
e 210 792
e 210 841
e 210 849
e 210 861
e 210 873
e 210 881
e 210 886
e 210 890
e 210 895
e 210 899
e 210 910
e 210 916
e 210 918
e 210 920
e 210 942
e 210 964
e 210 971
e 210 975
e 211 220
e 211 237
e 211 244
e 211 261
e 211 267
e 211 272
e 211 280
e 211 281
e 211 284
e 211 285
e 211 294
e 211 302
e 211 305
e 211 310
e 211 316
e 211 318
e 211 321
e 211 332
e 211 333
e 211 342
e 211 354
e 211 355
e 211 377
e 211 405
e 211 410
e 211 411
e 211 416
e 211 439
e 211 445
e 211 451
e 211 452
e 211 465
e 211 472
e 211 477
e 211 485
e 211 509
e 211 515
e 211 518
e 211 520
e 211 532
e 211 537
e 211 546
e 211 553
e 211 562
e 211 563
e 211 566
e 211 568
e 211 583
e 211 584
e 211 595
e 211 598
e 211 602
e 211 635
e 211 641
e 211 649
e 211 653
e 211 656
e 211 657
e 211 658
e 211 667
e 211 670
e 211 674
e 211 677
e 211 683
e 211 692
e 211 714
e 211 746
e 211 752
e 211 790
e 211 795
e 211 796
e 211 826
e 211 856
e 211 871
e 211 877
e 211 878
e 211 892
e 211 903
e 211 945
e 211 957
e 211 968
e 211 971
e 211 975
e 211 982
e 211 984
e 212 220
e 212 234
e 212 250
e 212 260
e 212 262
e 212 263
e 212 273
e 212 274
e 212 293
e 212 300
e 212 302
e 212 303
e 212 324
e 212 339
e 212 353
e 212 367
e 212 377
e 212 379
e 212 395
e 212 400
e 212 401
e 212 405
e 212 414
e 212 418
e 212 425
e 212 433
e 212 440
e 212 454
e 212 456
e 212 464
e 212 477
e 212 488
e 212 504
e 212 507
e 212 512
e 212 515
e 212 517
e 212 524
e 212 534
e 212 550
e 212 551
e 212 556
e 212 562
e 212 570
e 212 577
e 212 579
e 212 600
e 212 607
e 212 615
e 212 624
e 212 640
e 212 644
e 212 667
e 212 671
e 212 683
e 212 702
e 212 707
e 212 708
e 212 710
e 212 712
e 212 733
e 212 740
e 212 773
e 212 774
e 212 784
e 212 796
e 212 814
e 212 834
e 212 835
e 212 845
e 212 847
e 212 860
e 212 867
e 212 874
e 212 877
e 212 880
e 212 892
e 212 902
e 212 909
e 212 912
e 212 930
e 212 950
e 212 966
e 212 968
e 212 970
e 213 223
e 213 234
e 213 245
e 213 253
e 213 259
e 213 268
e 213 270
e 213 271
e 213 274
e 213 279
e 213 289
e 213 315
e 213 325
e 213 346
e 213 361
e 213 366
e 213 376
e 213 378
e 213 384
e 213 389
e 213 392
e 213 401
e 213 407
e 213 411
e 213 419
e 213 423
e 213 425
e 213 435
e 213 447
e 213 457
e 213 463
e 213 470
e 213 483
e 213 497
e 213 499
e 213 507
e 213 508
e 213 511
e 213 514
e 213 516
e 213 523
e 213 526
e 213 537
e 213 542
e 213 562
e 213 589
e 213 610
e 213 643
e 213 674
e 213 683
e 213 688
e 213 691
e 213 707
e 213 710
e 213 715
e 213 719
e 213 726
e 213 736
e 213 744
e 213 775
e 213 794
e 213 798
e 213 803
e 213 807
e 213 814
e 213 823
e 213 827
e 213 829
e 213 831
e 213 836
e 213 838
e 213 840
e 213 843
e 213 848
e 213 882
e 213 907
e 213 915
e 213 927
e 213 945
e 213 954
e 213 955
e 213 970
e 213 974
e 213 978
e 214 223
e 214 250
e 214 256
e 214 267
e 214 268
e 214 281
e 214 302
e 214 312
e 214 320
e 214 326
e 214 337
e 214 347
e 214 359
e 214 361
e 214 362
e 214 364
e 214 369
e 214 391
e 214 403
e 214 417
e 214 419
e 214 430
e 214 443
e 214 459
e 214 462
e 214 473
e 214 477
e 214 494
e 214 495
e 214 506
e 214 547
e 214 555
e 214 560
e 214 564
e 214 570
e 214 571
e 214 596
e 214 599
e 214 601
e 214 615
e 214 618
e 214 620
e 214 621
e 214 630
e 214 642
e 214 652
e 214 656
e 214 660
e 214 689
e 214 749
e 214 750
e 214 765
e 214 767
e 214 781
e 214 798
e 214 819
e 214 833
e 214 841
e 214 858
e 214 873
e 214 876
e 214 881
e 214 889
e 214 906
e 214 912
e 214 927
e 214 934
e 214 940
e 214 953
e 214 958
e 214 961
e 214 962
e 214 972
e 214 998
e 214 999
e 215 223
e 215 230
e 215 236
e 215 247
e 215 248
e 215 265
e 215 267
e 215 295
e 215 306
e 215 309
e 215 321
e 215 344
e 215 356
e 215 365
e 215 367
e 215 396
e 215 404
e 215 405
e 215 412
e 215 430
e 215 435
e 215 440
e 215 442
e 215 450
e 215 465
e 215 477
e 215 500
e 215 507
e 215 519
e 215 522
e 215 526
e 215 533
e 215 536
e 215 556
e 215 557
e 215 561
e 215 599
e 215 601
e 215 612
e 215 613
e 215 614
e 215 630
e 215 634
e 215 642
e 215 648
e 215 652
e 215 675
e 215 678
e 215 686
e 215 690
e 215 696
e 215 711
e 215 717
e 215 723
e 215 749
e 215 752
e 215 765
e 215 767
e 215 778
e 215 779
e 215 795
e 215 808
e 215 816
e 215 820
e 215 823
e 215 833
e 215 838
e 215 848
e 215 849
e 215 864
e 215 873
e 215 880
e 215 884
e 215 890
e 215 891
e 215 892
e 215 901
e 215 931
e 215 954
e 215 967
e 215 970
e 215 980
e 215 983
e 215 984
e 215 988
e 215 994
e 215 995
e 215 997
e 215 999
e 216 227
e 216 240
e 216 249
e 216 252
e 216 261
e 216 262
e 216 266
e 216 271
e 216 281
e 216 291
e 216 303
e 216 307
e 216 311
e 216 312
e 216 325
e 216 335
e 216 343
e 216 352
e 216 365
e 216 368
e 216 370
e 216 384
e 216 402
e 216 405
e 216 411
e 216 425
e 216 439
e 216 442
e 216 443
e 216 455
e 216 462
e 216 478
e 216 486
e 216 488
e 216 496
e 216 497
e 216 511
e 216 512
e 216 518
e 216 525
e 216 535
e 216 537
e 216 558
e 216 578
e 216 586
e 216 591
e 216 592
e 216 604
e 216 605
e 216 633
e 216 642
e 216 654
e 216 673
e 216 689
e 216 708
e 216 712
e 216 719
e 216 735
e 216 739
e 216 742
e 216 749
e 216 753
e 216 771
e 216 811
e 216 819
e 216 839
e 216 841
e 216 842
e 216 852
e 216 853
e 216 857
e 216 860
e 216 870
e 216 875
e 216 878
e 216 883
e 216 897
e 216 910
e 216 922
e 216 926
e 216 948
e 216 952
e 216 956
e 216 985
e 216 987
e 216 991
e 217 257
e 217 262
e 217 263
e 217 284
e 217 285
e 217 293
e 217 309
e 217 364
e 217 374
e 217 395
e 217 406
e 217 443
e 217 450
e 217 461
e 217 463
e 217 491
e 217 496
e 217 507
e 217 511
e 217 512
e 217 516
e 217 526
e 217 541
e 217 551
e 217 557
e 217 575
e 217 577
e 217 592
e 217 607
e 217 621
e 217 629
e 217 633
e 217 640
e 217 654
e 217 660
e 217 664
e 217 665
e 217 667
e 217 671
e 217 686
e 217 702
e 217 706
e 217 717
e 217 735
e 217 746
e 217 748
e 217 761
e 217 774
e 217 777
e 217 780
e 217 794
e 217 807
e 217 826
e 217 827
e 217 828
e 217 833
e 217 879
e 217 902
e 217 903
e 217 907
e 217 910
e 217 932
e 217 938
e 217 942
e 217 950
e 217 952
e 217 959
e 217 960
e 217 973
e 217 983
e 217 1000
e 218 231
e 218 247
e 218 257
e 218 261
e 218 266
e 218 283
e 218 298
e 218 302
e 218 306
e 218 317
e 218 336
e 218 337
e 218 370
e 218 400
e 218 418
e 218 426
e 218 433
e 218 452
e 218 457
e 218 477
e 218 482
e 218 484
e 218 486
e 218 494
e 218 504
e 218 515
e 218 527
e 218 530
e 218 544
e 218 553
e 218 561
e 218 563
e 218 580
e 218 601
e 218 620
e 218 627
e 218 629
e 218 639
e 218 644
e 218 652
e 218 665
e 218 669
e 218 670
e 218 675
e 218 681
e 218 709
e 218 711
e 218 744
e 218 753
e 218 771
e 218 774
e 218 783
e 218 784
e 218 801
e 218 802
e 218 819
e 218 827
e 218 830
e 218 839
e 218 845
e 218 847
e 218 853
e 218 868
e 218 869
e 218 877
e 218 879
e 218 889
e 218 894
e 218 930
e 218 939
e 218 943
e 218 948
e 218 954
e 218 969
e 218 987
e 219 245
e 219 258
e 219 276
e 219 313
e 219 323
e 219 348
e 219 371
e 219 379
e 219 381
e 219 382
e 219 385
e 219 388
e 219 394
e 219 411
e 219 412
e 219 415
e 219 426
e 219 427
e 219 429
e 219 437
e 219 457
e 219 469
e 219 483
e 219 493
e 219 495
e 219 496
e 219 499
e 219 508
e 219 510
e 219 517
e 219 530
e 219 531
e 219 554
e 219 569
e 219 577
e 219 579
e 219 587
e 219 594
e 219 596
e 219 618
e 219 622
e 219 627
e 219 657
e 219 675
e 219 681
e 219 682
e 219 686
e 219 695
e 219 719
e 219 730
e 219 733
e 219 737
e 219 742
e 219 747
e 219 765
e 219 777
e 219 778
e 219 787
e 219 803
e 219 805
e 219 814
e 219 815
e 219 842
e 219 843
e 219 849
e 219 865
e 219 870
e 219 876
e 219 878
e 219 890
e 219 907
e 219 916
e 219 918
e 219 928
e 219 938
e 219 979
e 219 990
e 219 991
e 219 998
e 220 223
e 220 236
e 220 238
e 220 254
e 220 265
e 220 271
e 220 273
e 220 294
e 220 305
e 220 318
e 220 329
e 220 342
e 220 354
e 220 359
e 220 367
e 220 380
e 220 383
e 220 384
e 220 387
e 220 395
e 220 396
e 220 399
e 220 427
e 220 460
e 220 461
e 220 470
e 220 475
e 220 499
e 220 525
e 220 547
e 220 555
e 220 557
e 220 560
e 220 575
e 220 617
e 220 628
e 220 630
e 220 667
e 220 691
e 220 692
e 220 693
e 220 706
e 220 709
e 220 723
e 220 725
e 220 727
e 220 732
e 220 744
e 220 753
e 220 774
e 220 778
e 220 782
e 220 783
e 220 795
e 220 798
e 220 823
e 220 838
e 220 844
e 220 875
e 220 891
e 220 895
e 220 899
e 220 904
e 220 906
e 220 908
e 220 909
e 220 922
e 220 942
e 220 947
e 220 952
e 220 959
e 220 970
e 220 972
e 221 227
e 221 228
e 221 242
e 221 243
e 221 255
e 221 256
e 221 265
e 221 268
e 221 280
e 221 284
e 221 300
e 221 316
e 221 331
e 221 352
e 221 356
e 221 358
e 221 359
e 221 391
e 221 394
e 221 404
e 221 412
e 221 425
e 221 442
e 221 445
e 221 447
e 221 450
e 221 462
e 221 484
e 221 485
e 221 490
e 221 506
e 221 526
e 221 558
e 221 574
e 221 581
e 221 586
e 221 621
e 221 624
e 221 644
e 221 648
e 221 656
e 221 669
e 221 685
e 221 692
e 221 702
e 221 705
e 221 710
e 221 719
e 221 723
e 221 746
e 221 747
e 221 757
e 221 763
e 221 769
e 221 781
e 221 783
e 221 787
e 221 797
e 221 807
e 221 812
e 221 816
e 221 824
e 221 827
e 221 847
e 221 865
e 221 876
e 221 885
e 221 891
e 221 897
e 221 907
e 221 910
e 221 923
e 221 931
e 221 947
e 221 962
e 221 974
e 221 977
e 221 979
e 221 995
e 222 223
e 222 227
e 222 229
e 222 237
e 222 238
e 222 245
e 222 259
e 222 286
e 222 289
e 222 297
e 222 299
e 222 302
e 222 306
e 222 317
e 222 320
e 222 330
e 222 335
e 222 358
e 222 360
e 222 372
e 222 386
e 222 394
e 222 396
e 222 397
e 222 408
e 222 413
e 222 421
e 222 451
e 222 452
e 222 460
e 222 476
e 222 522
e 222 523
e 222 543
e 222 550
e 222 563
e 222 565
e 222 572
e 222 573
e 222 593
e 222 597
e 222 599
e 222 600
e 222 614
e 222 618
e 222 626
e 222 629
e 222 634
e 222 636
e 222 649
e 222 655
e 222 675
e 222 678
e 222 682
e 222 684
e 222 686
e 222 687
e 222 697
e 222 698
e 222 701
e 222 704
e 222 705
e 222 715
e 222 732
e 222 752
e 222 753
e 222 762
e 222 763
e 222 768
e 222 774
e 222 775
e 222 780
e 222 793
e 222 800
e 222 825
e 222 828
e 222 833
e 222 836
e 222 838
e 222 845
e 222 872
e 222 876
e 222 878
e 222 889
e 222 895
e 222 896
e 222 898
e 222 901
e 222 902
e 222 908
e 222 926
e 222 933
e 222 938
e 222 940
e 222 944
e 222 950
e 222 955
e 222 960
e 222 964
e 222 969
e 222 983
e 222 988
e 222 991
e 223 237
e 223 238
e 223 239
e 223 241
e 223 244
e 223 246
e 223 249
e 223 269
e 223 286
e 223 293
e 223 295
e 223 316
e 223 319
e 223 329
e 223 338
e 223 339
e 223 343
e 223 358
e 223 363
e 223 369
e 223 382
e 223 402
e 223 410
e 223 420
e 223 421
e 223 427
e 223 438
e 223 439
e 223 459
e 223 462
e 223 467
e 223 469
e 223 470
e 223 474
e 223 475
e 223 476
e 223 485
e 223 494
e 223 509
e 223 517
e 223 520
e 223 522
e 223 523
e 223 528
e 223 530
e 223 537
e 223 540
e 223 542
e 223 543
e 223 547
e 223 553
e 223 571
e 223 575
e 223 603
e 223 614
e 223 620
e 223 621
e 223 634
e 223 646
e 223 651
e 223 674
e 223 688
e 223 690
e 223 692
e 223 703
e 223 708
e 223 709
e 223 724
e 223 744
e 223 746
e 223 759
e 223 761
e 223 762
e 223 773
e 223 790
e 223 798
e 223 810
e 223 837
e 223 840
e 223 842
e 223 844
e 223 846
e 223 853
e 223 873
e 223 888
e 223 902
e 223 910
e 223 920
e 223 931
e 223 938
e 223 942
e 223 948
e 223 957
e 223 958
e 223 995
e 224 232
e 224 237
e 224 239
e 224 243
e 224 264
e 224 267
e 224 284
e 224 294
e 224 298
e 224 299
e 224 304
e 224 313
e 224 321
e 224 353
e 224 358
e 224 361
e 224 369
e 224 370
e 224 373
e 224 389
e 224 430
e 224 441
e 224 443
e 224 444
e 224 446
e 224 457
e 224 459
e 224 481
e 224 487
e 224 488
e 224 499
e 224 524
e 224 526
e 224 534
e 224 562
e 224 575
e 224 585
e 224 595
e 224 602
e 224 626
e 224 643
e 224 644
e 224 666
e 224 669
e 224 680
e 224 690
e 224 698
e 224 719
e 224 724
e 224 738
e 224 764
e 224 765
e 224 768
e 224 769
e 224 773
e 224 786
e 224 798
e 224 800
e 224 816
e 224 821
e 224 824
e 224 825
e 224 837
e 224 845
e 224 856
e 224 871
e 224 884
e 224 890
e 224 897
e 224 906
e 224 911
e 224 912
e 224 916
e 224 923
e 224 927
e 224 931
e 224 934
e 224 936
e 224 946
e 224 950
e 224 964
e 224 968
e 224 970
e 224 973
e 224 976
e 224 977
e 224 979
e 224 981
e 224 994
e 225 228
e 225 234
e 225 238
e 225 246
e 225 254
e 225 273
e 225 292
e 225 300
e 225 331
e 225 352
e 225 387
e 225 392
e 225 412
e 225 414
e 225 422
e 225 425
e 225 430
e 225 481
e 225 482
e 225 492
e 225 494
e 225 499
e 225 501
e 225 511
e 225 531
e 225 535
e 225 538
e 225 553
e 225 556
e 225 579
e 225 584
e 225 590
e 225 604
e 225 614
e 225 625
e 225 640
e 225 641
e 225 652
e 225 658
e 225 671
e 225 687
e 225 689
e 225 694
e 225 715
e 225 728
e 225 750
e 225 765
e 225 768
e 225 791
e 225 812
e 225 815
e 225 822
e 225 824
e 225 832
e 225 837
e 225 840
e 225 843
e 225 876
e 225 879
e 225 921
e 225 927
e 225 932
e 225 953
e 225 967
e 225 990
e 226 227
e 226 234
e 226 239
e 226 255
e 226 256
e 226 295
e 226 306
e 226 332
e 226 339
e 226 341
e 226 343
e 226 347
e 226 349
e 226 359
e 226 384
e 226 406
e 226 417
e 226 424
e 226 434
e 226 462
e 226 475
e 226 511
e 226 531
e 226 536
e 226 543
e 226 547
e 226 549
e 226 570
e 226 572
e 226 581
e 226 583
e 226 600
e 226 623
e 226 624
e 226 629
e 226 636
e 226 657
e 226 689
e 226 695
e 226 701
e 226 724
e 226 725
e 226 734
e 226 738
e 226 748
e 226 754
e 226 756
e 226 757
e 226 762
e 226 768
e 226 782
e 226 792
e 226 811
e 226 832
e 226 833
e 226 836
e 226 842
e 226 846
e 226 894
e 226 899
e 226 902
e 226 914
e 226 939
e 226 951
e 226 952
e 226 977
e 226 978
e 226 990
e 227 235
e 227 236
e 227 249
e 227 250
e 227 267
e 227 274
e 227 280
e 227 285
e 227 293
e 227 300
e 227 305
e 227 310
e 227 312
e 227 317
e 227 328
e 227 332
e 227 343
e 227 347
e 227 360
e 227 372
e 227 378
e 227 393
e 227 395
e 227 410
e 227 417
e 227 425
e 227 426
e 227 435
e 227 456
e 227 459
e 227 481
e 227 483
e 227 501
e 227 505
e 227 506
e 227 508
e 227 529
e 227 531
e 227 538
e 227 559
e 227 563
e 227 578
e 227 581
e 227 622
e 227 640
e 227 643
e 227 665
e 227 749
e 227 761
e 227 776
e 227 782
e 227 789
e 227 801
e 227 822
e 227 832
e 227 833
e 227 838
e 227 840
e 227 843
e 227 846
e 227 847
e 227 848
e 227 852
e 227 882
e 227 884
e 227 891
e 227 899
e 227 931
e 227 938
e 227 954
e 227 982
e 227 984
e 227 989
e 228 230
e 228 247
e 228 258
e 228 269
e 228 275
e 228 278
e 228 280
e 228 290
e 228 294
e 228 322
e 228 324
e 228 328
e 228 331
e 228 342
e 228 360
e 228 370
e 228 377
e 228 379
e 228 383
e 228 392
e 228 394
e 228 400
e 228 404
e 228 409
e 228 412
e 228 414
e 228 421
e 228 435
e 228 442
e 228 446
e 228 449
e 228 454
e 228 486
e 228 513
e 228 542
e 228 552
e 228 553
e 228 555
e 228 559
e 228 577
e 228 581
e 228 582
e 228 592
e 228 600
e 228 601
e 228 619
e 228 624
e 228 644
e 228 646
e 228 649
e 228 655
e 228 660
e 228 662
e 228 676
e 228 687
e 228 697
e 228 711
e 228 726
e 228 728
e 228 741
e 228 746
e 228 752
e 228 753
e 228 762
e 228 797
e 228 800
e 228 802
e 228 805
e 228 822
e 228 851
e 228 856
e 228 898
e 228 899
e 228 915
e 228 919
e 228 922
e 228 923
e 228 927
e 228 930
e 228 933
e 228 937
e 228 943
e 228 956
e 228 959
e 228 976
e 228 985
e 228 988
e 228 990
e 228 992
e 228 997
e 228 999
e 229 251
e 229 261
e 229 279
e 229 280
e 229 289
e 229 316
e 229 333
e 229 349
e 229 355
e 229 378
e 229 394
e 229 399
e 229 408
e 229 433
e 229 435
e 229 452
e 229 455
e 229 459
e 229 466
e 229 563
e 229 566
e 229 579
e 229 587
e 229 603
e 229 606
e 229 616
e 229 633
e 229 639
e 229 644
e 229 655
e 229 661
e 229 666
e 229 669
e 229 677
e 229 681
e 229 693
e 229 700
e 229 705
e 229 720
e 229 724
e 229 732
e 229 748
e 229 755
e 229 776
e 229 777
e 229 790
e 229 794
e 229 808
e 229 813
e 229 818
e 229 864
e 229 881
e 229 887
e 229 890
e 229 908
e 229 927
e 229 933
e 229 944
e 229 965
e 229 966
e 229 970
e 229 979
e 229 996
e 230 234
e 230 266
e 230 267
e 230 268
e 230 272
e 230 274
e 230 278
e 230 289
e 230 310
e 230 333
e 230 334
e 230 356
e 230 369
e 230 401
e 230 404
e 230 411
e 230 415
e 230 419
e 230 425
e 230 434
e 230 442
e 230 461
e 230 463
e 230 481
e 230 498
e 230 512
e 230 525
e 230 538
e 230 539
e 230 548
e 230 549
e 230 554
e 230 560
e 230 566
e 230 569
e 230 574
e 230 582
e 230 585
e 230 588
e 230 591
e 230 607
e 230 662
e 230 668
e 230 670
e 230 680
e 230 684
e 230 687
e 230 695
e 230 709
e 230 722
e 230 743
e 230 747
e 230 755
e 230 761
e 230 766
e 230 780
e 230 782
e 230 784
e 230 789
e 230 799
e 230 805
e 230 822
e 230 849
e 230 856
e 230 863
e 230 864
e 230 872
e 230 877
e 230 879
e 230 883
e 230 895
e 230 896
e 230 905
e 230 916
e 230 917
e 230 918
e 230 950
e 230 951
e 230 970
e 230 976
e 230 983
e 231 244
e 231 269
e 231 282
e 231 299
e 231 308
e 231 309
e 231 312
e 231 315
e 231 318
e 231 331
e 231 332
e 231 335
e 231 358
e 231 359
e 231 369
e 231 374
e 231 378
e 231 392
e 231 398
e 231 401
e 231 409
e 231 410
e 231 411
e 231 414
e 231 422
e 231 425
e 231 427
e 231 435
e 231 439
e 231 447
e 231 455
e 231 456
e 231 464
e 231 470
e 231 476
e 231 486
e 231 488
e 231 497
e 231 525
e 231 547
e 231 564
e 231 565
e 231 566
e 231 574
e 231 580
e 231 583
e 231 602
e 231 603
e 231 608
e 231 619
e 231 633
e 231 641
e 231 658
e 231 660
e 231 683
e 231 684
e 231 717
e 231 721
e 231 747
e 231 750
e 231 752
e 231 754
e 231 766
e 231 768
e 231 774
e 231 779
e 231 780
e 231 787
e 231 791
e 231 795
e 231 819
e 231 826
e 231 829
e 231 833
e 231 854
e 231 855
e 231 857
e 231 859
e 231 860
e 231 869
e 231 879
e 231 903
e 231 912
e 231 915
e 231 918
e 231 929
e 231 934
e 231 936
e 231 939
e 231 947
e 231 948
e 231 958
e 231 963
e 231 968
e 231 970
e 231 976
e 231 983
e 231 994
e 232 234
e 232 246
e 232 248
e 232 250
e 232 252
e 232 253
e 232 255
e 232 272
e 232 295
e 232 309
e 232 310
e 232 330
e 232 345
e 232 348
e 232 359
e 232 364
e 232 371
e 232 385
e 232 389
e 232 403
e 232 407
e 232 414
e 232 425
e 232 434
e 232 448
e 232 449
e 232 463
e 232 480
e 232 495
e 232 503
e 232 505
e 232 512
e 232 514
e 232 518
e 232 525
e 232 530
e 232 533
e 232 556
e 232 557
e 232 566
e 232 588
e 232 605
e 232 607
e 232 619
e 232 624
e 232 636
e 232 678
e 232 724
e 232 731
e 232 747
e 232 748
e 232 760
e 232 776
e 232 790
e 232 792
e 232 795
e 232 802
e 232 811
e 232 825
e 232 828
e 232 829
e 232 843
e 232 846
e 232 855
e 232 857
e 232 858
e 232 861
e 232 871
e 232 881
e 232 892
e 232 895
e 232 897
e 232 909
e 232 937
e 232 954
e 232 966
e 232 971
e 232 987
e 233 235
e 233 263
e 233 265
e 233 266
e 233 280
e 233 283
e 233 286
e 233 308
e 233 317
e 233 319
e 233 326
e 233 327
e 233 343
e 233 345
e 233 373
e 233 379
e 233 381
e 233 388
e 233 390
e 233 396
e 233 398
e 233 402
e 233 407
e 233 438
e 233 441
e 233 452
e 233 454
e 233 463
e 233 468
e 233 474
e 233 481
e 233 487
e 233 492
e 233 494
e 233 505
e 233 517
e 233 521
e 233 541
e 233 548
e 233 558
e 233 560
e 233 569
e 233 572
e 233 576
e 233 580
e 233 583
e 233 609
e 233 619
e 233 631
e 233 632
e 233 638
e 233 640
e 233 646
e 233 667
e 233 673
e 233 679
e 233 683
e 233 684
e 233 687
e 233 691
e 233 726
e 233 730
e 233 745
e 233 748
e 233 768
e 233 774
e 233 775
e 233 781
e 233 792
e 233 811
e 233 821
e 233 828
e 233 864
e 233 872
e 233 903
e 233 921
e 233 937
e 233 938
e 233 943
e 233 958
e 233 968
e 233 972
e 233 979
e 233 981
e 233 987
e 233 989
e 233 994
e 234 237
e 234 253
e 234 259
e 234 276
e 234 293
e 234 305
e 234 324
e 234 326
e 234 345
e 234 355
e 234 369
e 234 374
e 234 382
e 234 392
e 234 394
e 234 395
e 234 396
e 234 413
e 234 422
e 234 439
e 234 456
e 234 485
e 234 487
e 234 502
e 234 545
e 234 557
e 234 559
e 234 584
e 234 605
e 234 627
e 234 631
e 234 632
e 234 634
e 234 640
e 234 656
e 234 659
e 234 660
e 234 663
e 234 675
e 234 676
e 234 686
e 234 689
e 234 711
e 234 731
e 234 737
e 234 746
e 234 747
e 234 750
e 234 752
e 234 771
e 234 783
e 234 787
e 234 801
e 234 810
e 234 817
e 234 854
e 234 869
e 234 878
e 234 906
e 234 914
e 234 915
e 234 928
e 234 929
e 234 935
e 234 958
e 234 960
e 234 970
e 234 973
e 234 985
e 235 250
e 235 258
e 235 264
e 235 303
e 235 319
e 235 328
e 235 336
e 235 347
e 235 348
e 235 353
e 235 355
e 235 381
e 235 391
e 235 392
e 235 428
e 235 441
e 235 443
e 235 462
e 235 464
e 235 500
e 235 510
e 235 513
e 235 524
e 235 527
e 235 531
e 235 533
e 235 534
e 235 542
e 235 545
e 235 552
e 235 556
e 235 565
e 235 577
e 235 581
e 235 587
e 235 600
e 235 602
e 235 603
e 235 613
e 235 619
e 235 630
e 235 648
e 235 659
e 235 671
e 235 716
e 235 725
e 235 726
e 235 742
e 235 765
e 235 769
e 235 797
e 235 798
e 235 803
e 235 804
e 235 805
e 235 830
e 235 835
e 235 858
e 235 865
e 235 873
e 235 876
e 235 890
e 235 893
e 235 926
e 235 953
e 235 956
e 235 957
e 235 972
e 235 973
e 235 984
e 235 995
e 235 999
e 236 248
e 236 267
e 236 270
e 236 272
e 236 277
e 236 286
e 236 289
e 236 299
e 236 311
e 236 334
e 236 349
e 236 359
e 236 371
e 236 378
e 236 384
e 236 414
e 236 428
e 236 433
e 236 441
e 236 443
e 236 457
e 236 464
e 236 541
e 236 560
e 236 564
e 236 569
e 236 574
e 236 578
e 236 582
e 236 598
e 236 602
e 236 610
e 236 611
e 236 612
e 236 615
e 236 620
e 236 627
e 236 629
e 236 638
e 236 641
e 236 642
e 236 658
e 236 660
e 236 661
e 236 669
e 236 670
e 236 673
e 236 675
e 236 679
e 236 687
e 236 697
e 236 701
e 236 705
e 236 716
e 236 717
e 236 726
e 236 752
e 236 787
e 236 792
e 236 803
e 236 806
e 236 838
e 236 854
e 236 858
e 236 861
e 236 863
e 236 871
e 236 873
e 236 876
e 236 880
e 236 883
e 236 897
e 236 898
e 236 916
e 236 918
e 236 932
e 236 948
e 236 951
e 236 984
e 236 993
e 236 997
e 236 999
e 236 1000
e 237 256
e 237 277
e 237 285
e 237 287
e 237 289
e 237 294
e 237 298
e 237 314
e 237 317
e 237 318
e 237 323
e 237 327
e 237 347
e 237 358
e 237 369
e 237 381
e 237 399
e 237 404
e 237 407
e 237 415
e 237 417
e 237 421
e 237 435
e 237 451
e 237 455
e 237 458
e 237 465
e 237 467
e 237 478
e 237 480
e 237 485
e 237 486
e 237 506
e 237 508
e 237 522
e 237 559
e 237 566
e 237 567
e 237 568
e 237 580
e 237 594
e 237 596
e 237 598
e 237 601
e 237 615
e 237 617
e 237 636
e 237 638
e 237 651
e 237 676
e 237 681
e 237 683
e 237 711
e 237 714
e 237 715
e 237 725
e 237 762
e 237 766
e 237 774
e 237 801
e 237 803
e 237 805
e 237 812
e 237 813
e 237 819
e 237 820
e 237 824
e 237 828
e 237 833
e 237 840
e 237 844
e 237 846
e 237 871
e 237 873
e 237 891
e 237 893
e 237 902
e 237 909
e 237 918
e 237 922
e 237 952
e 237 960
e 237 967
e 237 984
e 237 985
e 237 987
e 238 239
e 238 241
e 238 283
e 238 287
e 238 294
e 238 296
e 238 303
e 238 309
e 238 314
e 238 315
e 238 334
e 238 337
e 238 339
e 238 373
e 238 396
e 238 416
e 238 419
e 238 426
e 238 434
e 238 438
e 238 439
e 238 451
e 238 492
e 238 504
e 238 509
e 238 512
e 238 515
e 238 519
e 238 520
e 238 529
e 238 540
e 238 550
e 238 555
e 238 570
e 238 572
e 238 624
e 238 639
e 238 642
e 238 680
e 238 691
e 238 702
e 238 707
e 238 712
e 238 715
e 238 716
e 238 727
e 238 728
e 238 730
e 238 734
e 238 756
e 238 759
e 238 764
e 238 784
e 238 821
e 238 823
e 238 831
e 238 832
e 238 834
e 238 839
e 238 860
e 238 862
e 238 873
e 238 893
e 238 897
e 238 902
e 238 914
e 238 923
e 238 947
e 238 965
e 238 984
e 238 1000
e 239 246
e 239 249
e 239 257
e 239 260
e 239 273
e 239 274
e 239 277
e 239 303
e 239 304
e 239 349
e 239 356
e 239 358
e 239 369
e 239 375
e 239 391
e 239 397
e 239 401
e 239 404
e 239 407
e 239 433
e 239 438
e 239 458
e 239 464
e 239 467
e 239 468
e 239 470
e 239 484
e 239 489
e 239 502
e 239 504
e 239 520
e 239 530
e 239 531
e 239 533
e 239 535
e 239 545
e 239 552
e 239 556
e 239 589
e 239 590
e 239 602
e 239 614
e 239 621
e 239 655
e 239 677
e 239 681
e 239 691
e 239 696
e 239 699
e 239 708
e 239 725
e 239 744
e 239 764
e 239 765
e 239 770
e 239 779
e 239 783
e 239 788
e 239 800
e 239 803
e 239 822
e 239 846
e 239 852
e 239 877
e 239 878
e 239 890
e 239 900
e 239 914
e 239 924
e 239 935
e 239 941
e 239 951
e 239 971
e 239 987
e 239 995
e 240 250
e 240 255
e 240 260
e 240 271
e 240 277
e 240 285
e 240 302
e 240 304
e 240 305
e 240 307
e 240 308
e 240 363
e 240 370
e 240 371
e 240 376
e 240 377
e 240 391
e 240 392
e 240 398
e 240 416
e 240 443
e 240 448
e 240 452
e 240 456
e 240 467
e 240 472
e 240 476
e 240 490
e 240 503
e 240 508
e 240 512
e 240 517
e 240 534
e 240 559
e 240 565
e 240 571
e 240 598
e 240 600
e 240 606
e 240 607
e 240 611
e 240 612
e 240 614
e 240 627
e 240 634
e 240 636
e 240 655
e 240 676
e 240 685
e 240 688
e 240 690
e 240 702
e 240 725
e 240 727
e 240 753
e 240 755
e 240 760
e 240 763
e 240 765
e 240 777
e 240 785
e 240 789
e 240 793
e 240 811
e 240 829
e 240 848
e 240 861
e 240 862
e 240 864
e 240 889
e 240 894
e 240 897
e 240 926
e 240 928
e 240 938
e 240 946
e 240 947
e 240 950
e 240 959
e 240 963
e 240 970
e 240 977
e 240 992
e 241 252
e 241 272
e 241 274
e 241 281
e 241 291
e 241 293
e 241 294
e 241 295
e 241 297
e 241 301
e 241 311
e 241 362
e 241 374
e 241 391
e 241 420
e 241 434
e 241 439
e 241 443
e 241 452
e 241 454
e 241 469
e 241 470
e 241 475
e 241 477
e 241 497
e 241 502
e 241 503
e 241 508
e 241 518
e 241 524
e 241 526
e 241 539
e 241 547
e 241 550
e 241 558
e 241 612
e 241 667
e 241 674
e 241 681
e 241 699
e 241 705
e 241 711
e 241 715
e 241 724
e 241 730
e 241 740
e 241 760
e 241 762
e 241 773
e 241 777
e 241 780
e 241 796
e 241 827
e 241 834
e 241 839
e 241 845
e 241 846
e 241 851
e 241 853
e 241 856
e 241 858
e 241 863
e 241 871
e 241 876
e 241 881
e 241 889
e 241 901
e 241 908
e 241 916
e 241 935
e 241 938
e 241 951
e 241 964
e 242 243
e 242 250
e 242 266
e 242 268
e 242 270
e 242 279
e 242 285
e 242 291
e 242 295
e 242 299
e 242 320
e 242 349
e 242 356
e 242 361
e 242 362
e 242 364
e 242 367
e 242 378
e 242 394
e 242 398
e 242 399
e 242 413
e 242 435
e 242 439
e 242 445
e 242 469
e 242 487
e 242 490
e 242 497
e 242 499
e 242 516
e 242 531
e 242 535
e 242 538
e 242 546
e 242 556
e 242 565
e 242 571
e 242 572
e 242 585
e 242 617
e 242 628
e 242 630
e 242 650
e 242 657
e 242 658
e 242 695
e 242 696
e 242 700
e 242 734
e 242 745
e 242 746
e 242 757
e 242 760
e 242 793
e 242 811
e 242 818
e 242 826
e 242 838
e 242 843
e 242 849
e 242 859
e 242 860
e 242 865
e 242 866
e 242 893
e 242 899
e 242 922
e 242 933
e 242 947
e 242 953
e 242 959
e 242 961
e 242 968
e 242 975
e 242 987
e 242 999
e 243 247
e 243 253
e 243 254
e 243 257
e 243 269
e 243 280
e 243 283
e 243 292
e 243 301
e 243 326
e 243 330
e 243 341
e 243 344
e 243 348
e 243 356
e 243 359
e 243 365
e 243 379
e 243 380
e 243 384
e 243 398
e 243 418
e 243 420
e 243 479
e 243 485
e 243 503
e 243 505
e 243 536
e 243 537
e 243 554
e 243 561
e 243 563
e 243 570
e 243 582
e 243 583
e 243 592
e 243 595
e 243 596
e 243 597
e 243 600
e 243 607
e 243 616
e 243 664
e 243 672
e 243 677
e 243 701
e 243 753
e 243 779
e 243 781
e 243 783
e 243 793
e 243 813
e 243 817
e 243 836
e 243 847
e 243 851
e 243 865
e 243 872
e 243 886
e 243 887
e 243 892
e 243 908
e 243 910
e 243 916
e 243 920
e 243 930
e 243 935
e 243 945
e 243 957
e 243 971
e 243 975
e 243 998
e 244 246
e 244 248
e 244 254
e 244 258
e 244 265
e 244 272
e 244 285
e 244 291
e 244 316
e 244 317
e 244 319
e 244 335
e 244 343
e 244 353
e 244 354
e 244 371
e 244 407
e 244 431
e 244 440
e 244 447
e 244 453
e 244 456
e 244 470
e 244 496
e 244 498
e 244 508
e 244 513
e 244 515
e 244 521
e 244 534
e 244 539
e 244 544
e 244 548
e 244 550
e 244 567
e 244 569
e 244 571
e 244 574
e 244 638
e 244 641
e 244 649
e 244 651
e 244 655
e 244 658
e 244 659
e 244 670
e 244 671
e 244 675
e 244 686
e 244 689
e 244 704
e 244 713
e 244 718
e 244 751
e 244 752
e 244 769
e 244 789
e 244 791
e 244 817
e 244 828
e 244 835
e 244 850
e 244 863
e 244 871
e 244 875
e 244 882
e 244 885
e 244 900
e 244 915
e 244 924
e 244 932
e 244 952
e 244 965
e 244 966
e 244 970
e 244 975
e 244 982
e 244 988
e 245 275
e 245 278
e 245 283
e 245 293
e 245 294
e 245 301
e 245 312
e 245 326
e 245 332
e 245 333
e 245 338
e 245 340
e 245 353
e 245 357
e 245 373
e 245 375
e 245 380
e 245 391
e 245 422
e 245 439
e 245 451
e 245 464
e 245 473
e 245 482
e 245 489
e 245 494
e 245 521
e 245 524
e 245 525
e 245 530
e 245 542
e 245 543
e 245 561
e 245 567
e 245 568
e 245 583
e 245 602
e 245 605
e 245 619
e 245 655
e 245 661
e 245 663
e 245 664
e 245 667
e 245 676
e 245 689
e 245 696
e 245 706
e 245 709
e 245 722
e 245 729
e 245 731
e 245 736
e 245 754
e 245 762
e 245 771
e 245 798
e 245 810
e 245 814
e 245 815
e 245 817
e 245 825
e 245 833
e 245 841
e 245 865
e 245 869
e 245 888
e 245 893
e 245 904
e 245 921
e 245 965
e 245 978
e 245 979
e 245 983
e 245 996
e 246 247
e 246 252
e 246 254
e 246 263
e 246 270
e 246 275
e 246 276
e 246 295
e 246 302
e 246 332
e 246 344
e 246 357
e 246 366
e 246 368
e 246 370
e 246 371
e 246 373
e 246 416
e 246 418
e 246 428
e 246 429
e 246 442
e 246 452
e 246 465
e 246 474
e 246 479
e 246 491
e 246 519
e 246 525
e 246 538
e 246 551
e 246 561
e 246 571
e 246 641
e 246 642
e 246 656
e 246 660
e 246 666
e 246 677
e 246 682
e 246 687
e 246 689
e 246 694
e 246 704
e 246 720
e 246 723
e 246 748
e 246 768
e 246 779
e 246 781
e 246 810
e 246 811
e 246 814
e 246 815
e 246 830
e 246 838
e 246 840
e 246 841
e 246 848
e 246 856
e 246 875
e 246 889
e 246 896
e 246 904
e 246 905
e 246 910
e 246 913
e 246 947
e 246 948
e 246 950
e 246 955
e 246 957
e 246 963
e 246 989
e 246 994
e 246 1000
e 247 251
e 247 266
e 247 273
e 247 280
e 247 288
e 247 290
e 247 292
e 247 294
e 247 296
e 247 304
e 247 306
e 247 310
e 247 311
e 247 334
e 247 341
e 247 344
e 247 347
e 247 352
e 247 359
e 247 364
e 247 368
e 247 369
e 247 378
e 247 404
e 247 429
e 247 441
e 247 442
e 247 445
e 247 467
e 247 479
e 247 483
e 247 487
e 247 496
e 247 510
e 247 512
e 247 524
e 247 528
e 247 530
e 247 534
e 247 538
e 247 539
e 247 552
e 247 584
e 247 593
e 247 594
e 247 600
e 247 609
e 247 616
e 247 625
e 247 626
e 247 637
e 247 639
e 247 649
e 247 650
e 247 658
e 247 659
e 247 665
e 247 667
e 247 668
e 247 677
e 247 683
e 247 686
e 247 689
e 247 692
e 247 721
e 247 723
e 247 736
e 247 742
e 247 758
e 247 771
e 247 779
e 247 781
e 247 785
e 247 791
e 247 795
e 247 797
e 247 831
e 247 832
e 247 896
e 247 898
e 247 912
e 247 915
e 247 919
e 247 931
e 247 939
e 247 947
e 247 969
e 247 981
e 247 995
e 248 250
e 248 270
e 248 276
e 248 281
e 248 294
e 248 308
e 248 310
e 248 311
e 248 316
e 248 320
e 248 364
e 248 370
e 248 377
e 248 378
e 248 382
e 248 392
e 248 403
e 248 404
e 248 415
e 248 420
e 248 437
e 248 440
e 248 453
e 248 463
e 248 480
e 248 511
e 248 521
e 248 531
e 248 571
e 248 573
e 248 580
e 248 595
e 248 597
e 248 613
e 248 617
e 248 620
e 248 644
e 248 651
e 248 653
e 248 661
e 248 663
e 248 689
e 248 708
e 248 710
e 248 711
e 248 712
e 248 713
e 248 735
e 248 740
e 248 750
e 248 759
e 248 764
e 248 765
e 248 772
e 248 778
e 248 785
e 248 786
e 248 804
e 248 812
e 248 815
e 248 824
e 248 826
e 248 836
e 248 845
e 248 869
e 248 876
e 248 899
e 248 903
e 248 906
e 248 975
e 248 985
e 248 999
e 249 250
e 249 255
e 249 258
e 249 263
e 249 264
e 249 279
e 249 281
e 249 285
e 249 288
e 249 294
e 249 296
e 249 297
e 249 298
e 249 315
e 249 351
e 249 353
e 249 356
e 249 360
e 249 376
e 249 385
e 249 388
e 249 399
e 249 403
e 249 441
e 249 442
e 249 443
e 249 448
e 249 468
e 249 497
e 249 504
e 249 509
e 249 512
e 249 516
e 249 518
e 249 528
e 249 539
e 249 543
e 249 544
e 249 552
e 249 554
e 249 579
e 249 590
e 249 604
e 249 606
e 249 646
e 249 647
e 249 663
e 249 667
e 249 680
e 249 682
e 249 700
e 249 702
e 249 716
e 249 732
e 249 766
e 249 792
e 249 797
e 249 804
e 249 811
e 249 815
e 249 843
e 249 847
e 249 855
e 249 863
e 249 868
e 249 873
e 249 878
e 249 884
e 249 892
e 249 898
e 249 899
e 249 921
e 249 925
e 249 928
e 249 936
e 249 943
e 249 959
e 249 960
e 249 962
e 249 968
e 249 971
e 249 973
e 250 259
e 250 270
e 250 277
e 250 284
e 250 289
e 250 290
e 250 291
e 250 300
e 250 301
e 250 322
e 250 327
e 250 332
e 250 366
e 250 377
e 250 380
e 250 381
e 250 383
e 250 411
e 250 413
e 250 414
e 250 419
e 250 422
e 250 423
e 250 428
e 250 434
e 250 437
e 250 450
e 250 452
e 250 468
e 250 472
e 250 493
e 250 505
e 250 526
e 250 534
e 250 562
e 250 567
e 250 568
e 250 639
e 250 643
e 250 645
e 250 655
e 250 656
e 250 670
e 250 679
e 250 682
e 250 683
e 250 693
e 250 721
e 250 723
e 250 731
e 250 738
e 250 740
e 250 745
e 250 746
e 250 752
e 250 758
e 250 763
e 250 774
e 250 801
e 250 823
e 250 830
e 250 855
e 250 890
e 250 891
e 250 906
e 250 931
e 250 932
e 250 936
e 250 965
e 250 970
e 250 975
e 250 977
e 250 978
e 250 997
e 250 999
e 251 278
e 251 284
e 251 287
e 251 300
e 251 309
e 251 328
e 251 331
e 251 339
e 251 343
e 251 359
e 251 361
e 251 368
e 251 371
e 251 378
e 251 385
e 251 392
e 251 402
e 251 403
e 251 405
e 251 419
e 251 423
e 251 424
e 251 429
e 251 430
e 251 432
e 251 469
e 251 476
e 251 479
e 251 481
e 251 484
e 251 485
e 251 507
e 251 510
e 251 516
e 251 517
e 251 525
e 251 557
e 251 566
e 251 583
e 251 586
e 251 632
e 251 634
e 251 653
e 251 660
e 251 663
e 251 666
e 251 672
e 251 673
e 251 674
e 251 679
e 251 684
e 251 686
e 251 692
e 251 702
e 251 703
e 251 711
e 251 716
e 251 721
e 251 750
e 251 761
e 251 763
e 251 768
e 251 777
e 251 778
e 251 784
e 251 786
e 251 792
e 251 841
e 251 843
e 251 855
e 251 859
e 251 861
e 251 870
e 251 894
e 251 915
e 251 916
e 251 917
e 251 923
e 251 929
e 251 953
e 251 956
e 251 972
e 251 977
e 251 989
e 251 998
e 252 280
e 252 290
e 252 313
e 252 342
e 252 354
e 252 356
e 252 363
e 252 397
e 252 398
e 252 410
e 252 427
e 252 453
e 252 463
e 252 466
e 252 468
e 252 471
e 252 474
e 252 476
e 252 481
e 252 482
e 252 488
e 252 495
e 252 511
e 252 526
e 252 552
e 252 558
e 252 578
e 252 596
e 252 602
e 252 625
e 252 642
e 252 647
e 252 657
e 252 692
e 252 699
e 252 708
e 252 716
e 252 719
e 252 737
e 252 749
e 252 753
e 252 756
e 252 773
e 252 782
e 252 807
e 252 812
e 252 814
e 252 815
e 252 820
e 252 821
e 252 842
e 252 870
e 252 875
e 252 876
e 252 895
e 252 914
e 252 915
e 252 916
e 252 922
e 252 932
e 252 944
e 252 948
e 252 955
e 252 962
e 252 966
e 252 967
e 252 968
e 252 969
e 252 991
e 252 998
e 253 255
e 253 260
e 253 271
e 253 272
e 253 278
e 253 287
e 253 298
e 253 312
e 253 318
e 253 322
e 253 330
e 253 357
e 253 376
e 253 380
e 253 390
e 253 405
e 253 407
e 253 411
e 253 424
e 253 431
e 253 440
e 253 442
e 253 444
e 253 453
e 253 460
e 253 482
e 253 519
e 253 527
e 253 543
e 253 549
e 253 577
e 253 578
e 253 580
e 253 597
e 253 605
e 253 610
e 253 634
e 253 641
e 253 644
e 253 654
e 253 659
e 253 676
e 253 689
e 253 692
e 253 695
e 253 697
e 253 703
e 253 709
e 253 731
e 253 734
e 253 750
e 253 751
e 253 758
e 253 793
e 253 806
e 253 815
e 253 828
e 253 841
e 253 850
e 253 867
e 253 887
e 253 898
e 253 914
e 253 919
e 253 925
e 253 936
e 253 944
e 253 966
e 253 973
e 253 995
e 254 261
e 254 267
e 254 275
e 254 285
e 254 288
e 254 292
e 254 300
e 254 301
e 254 303
e 254 311
e 254 319
e 254 336
e 254 376
e 254 415
e 254 419
e 254 429
e 254 433
e 254 434
e 254 444
e 254 472
e 254 483
e 254 491
e 254 514
e 254 537
e 254 558
e 254 568
e 254 599
e 254 607
e 254 610
e 254 614
e 254 622
e 254 624
e 254 626
e 254 633
e 254 640
e 254 648
e 254 655
e 254 657
e 254 666
e 254 668
e 254 678
e 254 680
e 254 689
e 254 691
e 254 711
e 254 721
e 254 723
e 254 728
e 254 750
e 254 756
e 254 758
e 254 763
e 254 766
e 254 768
e 254 771
e 254 782
e 254 786
e 254 798
e 254 835
e 254 842
e 254 853
e 254 862
e 254 866
e 254 873
e 254 878
e 254 880
e 254 915
e 254 921
e 254 926
e 254 947
e 254 963
e 254 977
e 254 979
e 254 988
e 254 989
e 254 991
e 254 993
e 254 994
e 254 997
e 254 998
e 255 258
e 255 275
e 255 283
e 255 307
e 255 336
e 255 337
e 255 338
e 255 346
e 255 350
e 255 357
e 255 373
e 255 374
e 255 399
e 255 434
e 255 438
e 255 445
e 255 447
e 255 475
e 255 482
e 255 495
e 255 516
e 255 525
e 255 527
e 255 529
e 255 557
e 255 571
e 255 574
e 255 577
e 255 580
e 255 588
e 255 594
e 255 614
e 255 617
e 255 627
e 255 632
e 255 642
e 255 655
e 255 663
e 255 675
e 255 686
e 255 709
e 255 710
e 255 712
e 255 714
e 255 715
e 255 718
e 255 720
e 255 744
e 255 763
e 255 831
e 255 843
e 255 850
e 255 851
e 255 855
e 255 865
e 255 873
e 255 875
e 255 882
e 255 891
e 255 893
e 255 907
e 255 908
e 255 926
e 255 931
e 255 954
e 255 973
e 255 987
e 255 996
e 256 257
e 256 261
e 256 271
e 256 296
e 256 309
e 256 310
e 256 325
e 256 326
e 256 327
e 256 373
e 256 391
e 256 403
e 256 422
e 256 424
e 256 426
e 256 428
e 256 461
e 256 515
e 256 524
e 256 525
e 256 544
e 256 549
e 256 560
e 256 569
e 256 575
e 256 580
e 256 614
e 256 675
e 256 698
e 256 725
e 256 745
e 256 746
e 256 756
e 256 758
e 256 777
e 256 781
e 256 783
e 256 811
e 256 814
e 256 830
e 256 849
e 256 861
e 256 865
e 256 868
e 256 872
e 256 880
e 256 884
e 256 895
e 256 904
e 256 917
e 256 929
e 256 946
e 256 955
e 256 957
e 256 981
e 256 984
e 256 999
e 257 292
e 257 293
e 257 294
e 257 302
e 257 306
e 257 307
e 257 308
e 257 311
e 257 315
e 257 328
e 257 338
e 257 347
e 257 348
e 257 350
e 257 368
e 257 391
e 257 399
e 257 411
e 257 439
e 257 448
e 257 467
e 257 482
e 257 485
e 257 498
e 257 518
e 257 538
e 257 555
e 257 557
e 257 582
e 257 598
e 257 599
e 257 613
e 257 615
e 257 621
e 257 628
e 257 641
e 257 648
e 257 652
e 257 656
e 257 661
e 257 662
e 257 669
e 257 685
e 257 686
e 257 688
e 257 705
e 257 730
e 257 753
e 257 758
e 257 760
e 257 779
e 257 780
e 257 783
e 257 803
e 257 805
e 257 816
e 257 820
e 257 824
e 257 844
e 257 863
e 257 869
e 257 875
e 257 904
e 257 907
e 257 917
e 257 929
e 257 937
e 257 953
e 257 954
e 257 955
e 257 956
e 257 987
e 257 997
e 258 259
e 258 260
e 258 266
e 258 279
e 258 281
e 258 284
e 258 300
e 258 303
e 258 306
e 258 310
e 258 311
e 258 314
e 258 325
e 258 328
e 258 332
e 258 343
e 258 346
e 258 364
e 258 372
e 258 373
e 258 377
e 258 385
e 258 400
e 258 403
e 258 406
e 258 419
e 258 441
e 258 448
e 258 464
e 258 475
e 258 479
e 258 483
e 258 490
e 258 496
e 258 518
e 258 537
e 258 540
e 258 547
e 258 558
e 258 572
e 258 573
e 258 611
e 258 628
e 258 633
e 258 634
e 258 638
e 258 702
e 258 707
e 258 709
e 258 717
e 258 724
e 258 739
e 258 749
e 258 753
e 258 754
e 258 756
e 258 796
e 258 821
e 258 824
e 258 841
e 258 842
e 258 850
e 258 867
e 258 868
e 258 883
e 258 896
e 258 906
e 258 907
e 258 915
e 258 937
e 258 954
e 258 959
e 258 962
e 258 977
e 258 994
e 258 995
e 259 276
e 259 284
e 259 289
e 259 295
e 259 309
e 259 315
e 259 331
e 259 333
e 259 338
e 259 344
e 259 357
e 259 367
e 259 368
e 259 371
e 259 377
e 259 380
e 259 382
e 259 383
e 259 396
e 259 397
e 259 424
e 259 425
e 259 429
e 259 441
e 259 443
e 259 447
e 259 451
e 259 452
e 259 461
e 259 465
e 259 496
e 259 497
e 259 506
e 259 511
e 259 525
e 259 532
e 259 537
e 259 550
e 259 552
e 259 556
e 259 560
e 259 564
e 259 565
e 259 570
e 259 587
e 259 589
e 259 605
e 259 616
e 259 621
e 259 636
e 259 657
e 259 661
e 259 667
e 259 668
e 259 669
e 259 676
e 259 684
e 259 688
e 259 690
e 259 693
e 259 694
e 259 715
e 259 722
e 259 724
e 259 736
e 259 743
e 259 748
e 259 750
e 259 805
e 259 809
e 259 820
e 259 852
e 259 868
e 259 876
e 259 892
e 259 897
e 259 900
e 259 902
e 259 913
e 259 921
e 259 929
e 259 937
e 259 943
e 259 965
e 259 974
e 259 989
e 259 991
e 259 997
e 260 261
e 260 262
e 260 271
e 260 273
e 260 300
e 260 302
e 260 310
e 260 321
e 260 330
e 260 334
e 260 376
e 260 382
e 260 384
e 260 391
e 260 409
e 260 416
e 260 436
e 260 452
e 260 454
e 260 483
e 260 489
e 260 491
e 260 498
e 260 520
e 260 522
e 260 526
e 260 542
e 260 546
e 260 550
e 260 560
e 260 573
e 260 576
e 260 586
e 260 590
e 260 601
e 260 613
e 260 623
e 260 631
e 260 645
e 260 678
e 260 687
e 260 693
e 260 724
e 260 744
e 260 756
e 260 765
e 260 772
e 260 791
e 260 797
e 260 798
e 260 809
e 260 811
e 260 812
e 260 825
e 260 843
e 260 854
e 260 860
e 260 871
e 260 874
e 260 878
e 260 881
e 260 887
e 260 894
e 260 898
e 260 919
e 260 929
e 260 940
e 260 945
e 260 963
e 260 977
e 260 989
e 260 990
e 261 262
e 261 274
e 261 305
e 261 314
e 261 316
e 261 320
e 261 370
e 261 377
e 261 381
e 261 388
e 261 391
e 261 416
e 261 420
e 261 422
e 261 429
e 261 433
e 261 455
e 261 467
e 261 473
e 261 476
e 261 479
e 261 489
e 261 505
e 261 511
e 261 517
e 261 521
e 261 522
e 261 525
e 261 532
e 261 536
e 261 557
e 261 564
e 261 593
e 261 594
e 261 599
e 261 601
e 261 606
e 261 617
e 261 626
e 261 678
e 261 713
e 261 716
e 261 735
e 261 737
e 261 757
e 261 760
e 261 775
e 261 799
e 261 807
e 261 836
e 261 844
e 261 847
e 261 908
e 261 925
e 261 931
e 261 943
e 261 950
e 261 951
e 261 957
e 261 962
e 261 967
e 261 979
e 261 991
e 261 996
e 262 282
e 262 285
e 262 286
e 262 294
e 262 299
e 262 304
e 262 308
e 262 345
e 262 359
e 262 367
e 262 376
e 262 379
e 262 386
e 262 388
e 262 389
e 262 394
e 262 409
e 262 411
e 262 416
e 262 419
e 262 426
e 262 432
e 262 441
e 262 448
e 262 451
e 262 452
e 262 471
e 262 477
e 262 486
e 262 487
e 262 489
e 262 509
e 262 512
e 262 533
e 262 534
e 262 539
e 262 540
e 262 546
e 262 555
e 262 562
e 262 595
e 262 597
e 262 620
e 262 633
e 262 644
e 262 657
e 262 662
e 262 678
e 262 705
e 262 708
e 262 716
e 262 717
e 262 729
e 262 754
e 262 757
e 262 767
e 262 775
e 262 784
e 262 804
e 262 810
e 262 826
e 262 844
e 262 851
e 262 861
e 262 877
e 262 879
e 262 889
e 262 899
e 262 915
e 262 928
e 262 940
e 262 955
e 262 957
e 262 964
e 262 971
e 262 972
e 262 973
e 262 997
e 262 998
e 263 266
e 263 267
e 263 275
e 263 287
e 263 291
e 263 297
e 263 305
e 263 310
e 263 313
e 263 321
e 263 323
e 263 327
e 263 332
e 263 334
e 263 340
e 263 342
e 263 347
e 263 350
e 263 357
e 263 359
e 263 374
e 263 384
e 263 386
e 263 397
e 263 401
e 263 413
e 263 420
e 263 422
e 263 449
e 263 456
e 263 459
e 263 471
e 263 476
e 263 485
e 263 486
e 263 510
e 263 519
e 263 520
e 263 527
e 263 540
e 263 545
e 263 546
e 263 562
e 263 564
e 263 600
e 263 603
e 263 615
e 263 619
e 263 628
e 263 632
e 263 637
e 263 648
e 263 657
e 263 675
e 263 685
e 263 692
e 263 694
e 263 706
e 263 715
e 263 717
e 263 721
e 263 730
e 263 735
e 263 736
e 263 743
e 263 748
e 263 778
e 263 811
e 263 812
e 263 821
e 263 825
e 263 828
e 263 855
e 263 858
e 263 866
e 263 878
e 263 883
e 263 888
e 263 896
e 263 907
e 263 909
e 263 912
e 263 926
e 263 963
e 263 970
e 263 980
e 263 986
e 263 994
e 264 267
e 264 269
e 264 274
e 264 278
e 264 283
e 264 286
e 264 299
e 264 303
e 264 312
e 264 321
e 264 333
e 264 335
e 264 344
e 264 354
e 264 379
e 264 387
e 264 388
e 264 390
e 264 417
e 264 420
e 264 426
e 264 439
e 264 440
e 264 446
e 264 447
e 264 450
e 264 453
e 264 475
e 264 512
e 264 516
e 264 519
e 264 524
e 264 533
e 264 553
e 264 561
e 264 585
e 264 586
e 264 590
e 264 594
e 264 607
e 264 608
e 264 614
e 264 621
e 264 627
e 264 629
e 264 633
e 264 641
e 264 645
e 264 646
e 264 662
e 264 670
e 264 680
e 264 692
e 264 738
e 264 757
e 264 767
e 264 770
e 264 774
e 264 782
e 264 787
e 264 793
e 264 831
e 264 852
e 264 868
e 264 873
e 264 877
e 264 887
e 264 908
e 264 924
e 264 932
e 264 936
e 264 975
e 264 987
e 265 269
e 265 277
e 265 278
e 265 287
e 265 295
e 265 305
e 265 347
e 265 359
e 265 407
e 265 408
e 265 409
e 265 434
e 265 435
e 265 471
e 265 480
e 265 483
e 265 485
e 265 486
e 265 511
e 265 519
e 265 528
e 265 531
e 265 533
e 265 548
e 265 550
e 265 551
e 265 556
e 265 558
e 265 559
e 265 562
e 265 566
e 265 581
e 265 589
e 265 599
e 265 603
e 265 612
e 265 620
e 265 658
e 265 680
e 265 696
e 265 698
e 265 715
e 265 771
e 265 772
e 265 774
e 265 784
e 265 790
e 265 795
e 265 804
e 265 809
e 265 814
e 265 817
e 265 826
e 265 836
e 265 860
e 265 869
e 265 871
e 265 884
e 265 888
e 265 891
e 265 900
e 265 904
e 265 918
e 265 950
e 265 958
e 265 968
e 265 970
e 265 980
e 266 278
e 266 280
e 266 284
e 266 296
e 266 317
e 266 323
e 266 342
e 266 353
e 266 366
e 266 404
e 266 421
e 266 451
e 266 458
e 266 460
e 266 461
e 266 470
e 266 482
e 266 483
e 266 494
e 266 500
e 266 507
e 266 512
e 266 515
e 266 521
e 266 538
e 266 595
e 266 596
e 266 612
e 266 620
e 266 621
e 266 642
e 266 662
e 266 664
e 266 671
e 266 684
e 266 709
e 266 710
e 266 712
e 266 718
e 266 748
e 266 749
e 266 764
e 266 772
e 266 791
e 266 815
e 266 823
e 266 826
e 266 832
e 266 834
e 266 836
e 266 862
e 266 917
e 266 918
e 266 924
e 266 925
e 266 930
e 266 945
e 266 948
e 266 951
e 266 954
e 266 963
e 266 964
e 266 984
e 267 269
e 267 270
e 267 291
e 267 303
e 267 321
e 267 335
e 267 347
e 267 365
e 267 382
e 267 391
e 267 394
e 267 405
e 267 415
e 267 422
e 267 432
e 267 434
e 267 435
e 267 436
e 267 438
e 267 439
e 267 443
e 267 456
e 267 459
e 267 463
e 267 466
e 267 491
e 267 492
e 267 504
e 267 529
e 267 531
e 267 532
e 267 551
e 267 553
e 267 563
e 267 579
e 267 600
e 267 605
e 267 646
e 267 649
e 267 664
e 267 680
e 267 681
e 267 688
e 267 697
e 267 700
e 267 714
e 267 718
e 267 725
e 267 730
e 267 770
e 267 782
e 267 795
e 267 800
e 267 811
e 267 812
e 267 816
e 267 821
e 267 827
e 267 837
e 267 867
e 267 876
e 267 878
e 267 890
e 267 898
e 267 919
e 267 923
e 267 926
e 267 933
e 267 942
e 267 948
e 267 950
e 267 958
e 267 991
e 267 992
e 267 995
e 268 277
e 268 281
e 268 292
e 268 298
e 268 299
e 268 301
e 268 302
e 268 316
e 268 335
e 268 366
e 268 371
e 268 372
e 268 389
e 268 398
e 268 399
e 268 404
e 268 428
e 268 439
e 268 447
e 268 450
e 268 473
e 268 511
e 268 520
e 268 566
e 268 586
e 268 597
e 268 612
e 268 613
e 268 627
e 268 645
e 268 660
e 268 668
e 268 688
e 268 689
e 268 694
e 268 699
e 268 715
e 268 718
e 268 726
e 268 748
e 268 767
e 268 776
e 268 784
e 268 816
e 268 821
e 268 825
e 268 852
e 268 857
e 268 862
e 268 890
e 268 900
e 268 905
e 268 910
e 268 927
e 268 931
e 268 933
e 268 945
e 268 949
e 268 980
e 268 991
e 268 993
e 269 319
e 269 323
e 269 324
e 269 328
e 269 333
e 269 334
e 269 339
e 269 341
e 269 351
e 269 365
e 269 367
e 269 374
e 269 383
e 269 385
e 269 400
e 269 401
e 269 417
e 269 421
e 269 425
e 269 429
e 269 430
e 269 433
e 269 437
e 269 453
e 269 456
e 269 461
e 269 481
e 269 484
e 269 498
e 269 500
e 269 516
e 269 536
e 269 550
e 269 560
e 269 572
e 269 591
e 269 593
e 269 594
e 269 597
e 269 604
e 269 615
e 269 623
e 269 634
e 269 638
e 269 654
e 269 656
e 269 686
e 269 699
e 269 711
e 269 731
e 269 744
e 269 745
e 269 752
e 269 761
e 269 764
e 269 772
e 269 778
e 269 796
e 269 805
e 269 822
e 269 824
e 269 838
e 269 859
e 269 869
e 269 870
e 269 873
e 269 875
e 269 906
e 269 938
e 269 942
e 269 950
e 269 968
e 269 976
e 269 984
e 269 986
e 270 284
e 270 304
e 270 313
e 270 326
e 270 354
e 270 361
e 270 365
e 270 370
e 270 395
e 270 404
e 270 409
e 270 418
e 270 422
e 270 435
e 270 437
e 270 445
e 270 454
e 270 463
e 270 468
e 270 476
e 270 480
e 270 481
e 270 499
e 270 513
e 270 517
e 270 523
e 270 532
e 270 542
e 270 566
e 270 586
e 270 592
e 270 594
e 270 627
e 270 630
e 270 647
e 270 674
e 270 702
e 270 716
e 270 718
e 270 720
e 270 733
e 270 735
e 270 740
e 270 757
e 270 767
e 270 783
e 270 788
e 270 797
e 270 816
e 270 817
e 270 823
e 270 826
e 270 829
e 270 830
e 270 866
e 270 869
e 270 872
e 270 873
e 270 878
e 270 879
e 270 887
e 270 898
e 270 912
e 270 913
e 270 915
e 270 931
e 270 940
e 270 947
e 270 948
e 270 952
e 270 954
e 270 976
e 270 979
e 270 985
e 270 987
e 271 274
e 271 296
e 271 312
e 271 323
e 271 329
e 271 330
e 271 337
e 271 366
e 271 381
e 271 386
e 271 393
e 271 406
e 271 407
e 271 408
e 271 411
e 271 416
e 271 421
e 271 427
e 271 450
e 271 459
e 271 463
e 271 468
e 271 501
e 271 506
e 271 515
e 271 525
e 271 535
e 271 539
e 271 547
e 271 553
e 271 556
e 271 581
e 271 583
e 271 589
e 271 627
e 271 633
e 271 652
e 271 668
e 271 669
e 271 672
e 271 677
e 271 700
e 271 701
e 271 715
e 271 717
e 271 718
e 271 723
e 271 729
e 271 752
e 271 757
e 271 763
e 271 766
e 271 806
e 271 807
e 271 809
e 271 824
e 271 847
e 271 865
e 271 872
e 271 874
e 271 875
e 271 880
e 271 885
e 271 895
e 271 899
e 271 902
e 271 903
e 271 921
e 271 922
e 271 927
e 271 938
e 271 950
e 271 953
e 271 966
e 271 968
e 271 992
e 272 277
e 272 281
e 272 288
e 272 294
e 272 311
e 272 317
e 272 336
e 272 340
e 272 341
e 272 342
e 272 346
e 272 347
e 272 352
e 272 353
e 272 356
e 272 363
e 272 367
e 272 385
e 272 396
e 272 400
e 272 401
e 272 407
e 272 420
e 272 444
e 272 445
e 272 453
e 272 458
e 272 461
e 272 471
e 272 473
e 272 475
e 272 485
e 272 486
e 272 488
e 272 496
e 272 508
e 272 527
e 272 538
e 272 546
e 272 562
e 272 563
e 272 578
e 272 591
e 272 603
e 272 607
e 272 614
e 272 618
e 272 621
e 272 627
e 272 639
e 272 645
e 272 653
e 272 661
e 272 674
e 272 701
e 272 728
e 272 740
e 272 761
e 272 770
e 272 791
e 272 793
e 272 795
e 272 801
e 272 803
e 272 812
e 272 821
e 272 825
e 272 834
e 272 850
e 272 856
e 272 862
e 272 868
e 272 903
e 272 906
e 272 908
e 272 920
e 272 924
e 272 930
e 272 951
e 272 955
e 272 957
e 272 970
e 272 980
e 273 275
e 273 299
e 273 303
e 273 307
e 273 319
e 273 326
e 273 340
e 273 342
e 273 356
e 273 360
e 273 361
e 273 362
e 273 428
e 273 443
e 273 448
e 273 468
e 273 469
e 273 475
e 273 482
e 273 498
e 273 507
e 273 510
e 273 511
e 273 517
e 273 520
e 273 530
e 273 539
e 273 543
e 273 552
e 273 562
e 273 572
e 273 573
e 273 579
e 273 587
e 273 590
e 273 614
e 273 620
e 273 672
e 273 692
e 273 693
e 273 700
e 273 712
e 273 719
e 273 720
e 273 721
e 273 725
e 273 731
e 273 746
e 273 747
e 273 748
e 273 768
e 273 781
e 273 804
e 273 808
e 273 817
e 273 818
e 273 824
e 273 847
e 273 854
e 273 856
e 273 861
e 273 865
e 273 899
e 273 911
e 273 914
e 273 934
e 273 939
e 273 941
e 273 950
e 273 996
e 274 277
e 274 296
e 274 299
e 274 321
e 274 326
e 274 331
e 274 332
e 274 343
e 274 346
e 274 347
e 274 362
e 274 364
e 274 369
e 274 370
e 274 379
e 274 389
e 274 390
e 274 393
e 274 397
e 274 406
e 274 416
e 274 431
e 274 441
e 274 471
e 274 476
e 274 477
e 274 491
e 274 498
e 274 500
e 274 505
e 274 531
e 274 540
e 274 547
e 274 553
e 274 558
e 274 575
e 274 596
e 274 602
e 274 604
e 274 616
e 274 623
e 274 634
e 274 650
e 274 676
e 274 684
e 274 692
e 274 730
e 274 737
e 274 742
e 274 743
e 274 744
e 274 751
e 274 756
e 274 758
e 274 760
e 274 762
e 274 773
e 274 778
e 274 787
e 274 788
e 274 790
e 274 797
e 274 799
e 274 825
e 274 850
e 274 853
e 274 860
e 274 887
e 274 893
e 274 894
e 274 897
e 274 908
e 274 910
e 274 913
e 274 932
e 274 942
e 274 945
e 274 954
e 274 964
e 274 967
e 275 308
e 275 333
e 275 337
e 275 345
e 275 352
e 275 363
e 275 372
e 275 389
e 275 391
e 275 392
e 275 396
e 275 397
e 275 412
e 275 431
e 275 439
e 275 442
e 275 445
e 275 448
e 275 449
e 275 451
e 275 455
e 275 460
e 275 464
e 275 469
e 275 472
e 275 478
e 275 510
e 275 559
e 275 560
e 275 569
e 275 590
e 275 592
e 275 593
e 275 598
e 275 602
e 275 608
e 275 614
e 275 627
e 275 628
e 275 631
e 275 638
e 275 653
e 275 656
e 275 666
e 275 677
e 275 684
e 275 689
e 275 692
e 275 704
e 275 713
e 275 717
e 275 730
e 275 738
e 275 773
e 275 774
e 275 775
e 275 777
e 275 783
e 275 788
e 275 792
e 275 796
e 275 858
e 275 860
e 275 861
e 275 868
e 275 895
e 275 898
e 275 905
e 275 906
e 275 913
e 275 947
e 275 966
e 275 973
e 275 974
e 275 978
e 275 985
e 276 277
e 276 292
e 276 297
e 276 306
e 276 314
e 276 318
e 276 320
e 276 325
e 276 327
e 276 340
e 276 345
e 276 350
e 276 372
e 276 374
e 276 402
e 276 405
e 276 414
e 276 417
e 276 445
e 276 474
e 276 505
e 276 510
e 276 521
e 276 535
e 276 539
e 276 545
e 276 549
e 276 562
e 276 571
e 276 576
e 276 594
e 276 613
e 276 622
e 276 625
e 276 639
e 276 653
e 276 660
e 276 662
e 276 663
e 276 675
e 276 681
e 276 689
e 276 706
e 276 732
e 276 744
e 276 745
e 276 748
e 276 750
e 276 760
e 276 772
e 276 782
e 276 798
e 276 803
e 276 805
e 276 809
e 276 829
e 276 839
e 276 848
e 276 867
e 276 868
e 276 879
e 276 889
e 276 893
e 276 898
e 276 899
e 276 902
e 276 906
e 276 912
e 276 941
e 276 945
e 276 964
e 276 965
e 276 969
e 276 970
e 276 975
e 276 987
e 277 279
e 277 300
e 277 312
e 277 316
e 277 329
e 277 357
e 277 361
e 277 367
e 277 383
e 277 406
e 277 417
e 277 422
e 277 443
e 277 454
e 277 456
e 277 457
e 277 478
e 277 484
e 277 491
e 277 503
e 277 510
e 277 511
e 277 521
e 277 529
e 277 535
e 277 539
e 277 542
e 277 547
e 277 565
e 277 570
e 277 587
e 277 594
e 277 625
e 277 627
e 277 629
e 277 689
e 277 692
e 277 694
e 277 713
e 277 714
e 277 715
e 277 722
e 277 723
e 277 740
e 277 748
e 277 769
e 277 771
e 277 787
e 277 803
e 277 817
e 277 819
e 277 832
e 277 848
e 277 872
e 277 878
e 277 916
e 277 927
e 277 955
e 277 959
e 277 968
e 277 971
e 277 977
e 277 997
e 278 286
e 278 295
e 278 296
e 278 302
e 278 324
e 278 335
e 278 377
e 278 379
e 278 380
e 278 386
e 278 394
e 278 396
e 278 422
e 278 425
e 278 433
e 278 445
e 278 459
e 278 475
e 278 507
e 278 527
e 278 544
e 278 557
e 278 558
e 278 574
e 278 576
e 278 579
e 278 580
e 278 585
e 278 590
e 278 627
e 278 629
e 278 632
e 278 640
e 278 647
e 278 663
e 278 676
e 278 680
e 278 692
e 278 700
e 278 707
e 278 724
e 278 728
e 278 741
e 278 759
e 278 770
e 278 776
e 278 783
e 278 792
e 278 802
e 278 809
e 278 819
e 278 823
e 278 834
e 278 838
e 278 845
e 278 852
e 278 856
e 278 861
e 278 866
e 278 868
e 278 870
e 278 882
e 278 886
e 278 890
e 278 897
e 278 901
e 278 912
e 278 919
e 278 922
e 278 928
e 278 935
e 278 941
e 278 951
e 278 962
e 278 964
e 278 967
e 278 969
e 279 283
e 279 288
e 279 296
e 279 301
e 279 311
e 279 312
e 279 324
e 279 336
e 279 337
e 279 338
e 279 344
e 279 346
e 279 350
e 279 351
e 279 355
e 279 362
e 279 376
e 279 386
e 279 402
e 279 403
e 279 442
e 279 468
e 279 472
e 279 485
e 279 505
e 279 523
e 279 541
e 279 545
e 279 549
e 279 551
e 279 562
e 279 565
e 279 582
e 279 586
e 279 588
e 279 594
e 279 599
e 279 602
e 279 623
e 279 640
e 279 646
e 279 648
e 279 649
e 279 650
e 279 716
e 279 720
e 279 723
e 279 727
e 279 733
e 279 762
e 279 779
e 279 788
e 279 791
e 279 804
e 279 813
e 279 829
e 279 840
e 279 853
e 279 864
e 279 871
e 279 874
e 279 883
e 279 904
e 279 910
e 279 911
e 279 922
e 279 932
e 279 940
e 279 948
e 279 959
e 279 969
e 279 972
e 280 290
e 280 292
e 280 309
e 280 343
e 280 349
e 280 352
e 280 364
e 280 375
e 280 391
e 280 394
e 280 409
e 280 410
e 280 415
e 280 423
e 280 427
e 280 435
e 280 437
e 280 444
e 280 447
e 280 452
e 280 453
e 280 458
e 280 467
e 280 487
e 280 498
e 280 502
e 280 505
e 280 509
e 280 517
e 280 536
e 280 556
e 280 560
e 280 578
e 280 604
e 280 615
e 280 616
e 280 619
e 280 620
e 280 623
e 280 629
e 280 635
e 280 651
e 280 655
e 280 664
e 280 679
e 280 684
e 280 699
e 280 714
e 280 743
e 280 751
e 280 758
e 280 784
e 280 793
e 280 796
e 280 799
e 280 802
e 280 818
e 280 819
e 280 821
e 280 825
e 280 832
e 280 839
e 280 853
e 280 860
e 280 861
e 280 882
e 280 884
e 280 908
e 280 936
e 280 937
e 280 963
e 280 982
e 280 985
e 281 298
e 281 302
e 281 328
e 281 347
e 281 350
e 281 360
e 281 365
e 281 393
e 281 402
e 281 403
e 281 426
e 281 431
e 281 435
e 281 439
e 281 459
e 281 469
e 281 483
e 281 484
e 281 488
e 281 489
e 281 497
e 281 508
e 281 527
e 281 529
e 281 536
e 281 549
e 281 566
e 281 579
e 281 593
e 281 598
e 281 600
e 281 610
e 281 611
e 281 624
e 281 625
e 281 643
e 281 652
e 281 673
e 281 693
e 281 696
e 281 704
e 281 705
e 281 740
e 281 746
e 281 757
e 281 764
e 281 766
e 281 791
e 281 799
e 281 804
e 281 809
e 281 823
e 281 829
e 281 830
e 281 835
e 281 844
e 281 863
e 281 869
e 281 872
e 281 876
e 281 878
e 281 880
e 281 881
e 281 886
e 281 896
e 281 897
e 281 926
e 281 931
e 281 934
e 281 962
e 281 963
e 281 971
e 281 973
e 281 974
e 281 975
e 282 284
e 282 293
e 282 301
e 282 303
e 282 318
e 282 330
e 282 332
e 282 346
e 282 352
e 282 361
e 282 369
e 282 372
e 282 373
e 282 374
e 282 377
e 282 382
e 282 419
e 282 430
e 282 435
e 282 445
e 282 453
e 282 462
e 282 495
e 282 503
e 282 519
e 282 542
e 282 552
e 282 562
e 282 566
e 282 591
e 282 610
e 282 616
e 282 650
e 282 659
e 282 692
e 282 702
e 282 711
e 282 721
e 282 725
e 282 730
e 282 741
e 282 750
e 282 753
e 282 759
e 282 766
e 282 781
e 282 792
e 282 801
e 282 803
e 282 830
e 282 833
e 282 841
e 282 867
e 282 887
e 282 895
e 282 900
e 282 943
e 282 958
e 282 964
e 282 967
e 282 969
e 282 985
e 282 986
e 282 988
e 282 989
e 282 994
e 282 995
e 283 287
e 283 294
e 283 298
e 283 303
e 283 336
e 283 340
e 283 351
e 283 352
e 283 355
e 283 359
e 283 377
e 283 378
e 283 399
e 283 403
e 283 405
e 283 413
e 283 416
e 283 455
e 283 466
e 283 473
e 283 475
e 283 491
e 283 506
e 283 507
e 283 509
e 283 520
e 283 527
e 283 545
e 283 549
e 283 566
e 283 583
e 283 587
e 283 617
e 283 618
e 283 644
e 283 650
e 283 661
e 283 667
e 283 670
e 283 693
e 283 697
e 283 717
e 283 726
e 283 729
e 283 744
e 283 746
e 283 752
e 283 775
e 283 776
e 283 779
e 283 780
e 283 796
e 283 801
e 283 817
e 283 819
e 283 823
e 283 832
e 283 837
e 283 861
e 283 886
e 283 892
e 283 913
e 283 944
e 283 954
e 283 955
e 284 288
e 284 305
e 284 306
e 284 315
e 284 318
e 284 319
e 284 323
e 284 325
e 284 327
e 284 333
e 284 339
e 284 366
e 284 383
e 284 390
e 284 406
e 284 409
e 284 418
e 284 435
e 284 436
e 284 438
e 284 469
e 284 487
e 284 506
e 284 508
e 284 541
e 284 558
e 284 565
e 284 579
e 284 582
e 284 599
e 284 618
e 284 625
e 284 626
e 284 639
e 284 641
e 284 642
e 284 649
e 284 655
e 284 664
e 284 668
e 284 673
e 284 676
e 284 692
e 284 703
e 284 710
e 284 719
e 284 737
e 284 744
e 284 749
e 284 753
e 284 778
e 284 787
e 284 791
e 284 796
e 284 805
e 284 808
e 284 815
e 284 831
e 284 836
e 284 849
e 284 858
e 284 867
e 284 869
e 284 873
e 284 884
e 284 891
e 284 892
e 284 921
e 284 947
e 284 960
e 284 961
e 284 988
e 285 288
e 285 297
e 285 315
e 285 316
e 285 326
e 285 333
e 285 366
e 285 373
e 285 398
e 285 399
e 285 411
e 285 419
e 285 423
e 285 430
e 285 441
e 285 445
e 285 448
e 285 459
e 285 469
e 285 471
e 285 473
e 285 476
e 285 487
e 285 496
e 285 499
e 285 505
e 285 523
e 285 530
e 285 549
e 285 553
e 285 562
e 285 570
e 285 584
e 285 591
e 285 600
e 285 605
e 285 621
e 285 627
e 285 631
e 285 641
e 285 652
e 285 668
e 285 709
e 285 716
e 285 718
e 285 722
e 285 728
e 285 740
e 285 741
e 285 770
e 285 792
e 285 796
e 285 820
e 285 823
e 285 824
e 285 826
e 285 828
e 285 848
e 285 853
e 285 859
e 285 879
e 285 889
e 285 894
e 285 896
e 285 910
e 285 914
e 285 916
e 285 940
e 285 946
e 285 949
e 285 952
e 285 955
e 285 963
e 285 966
e 285 967
e 285 971
e 286 297
e 286 324
e 286 332
e 286 335
e 286 363
e 286 367
e 286 380
e 286 383
e 286 385
e 286 386
e 286 408
e 286 412
e 286 423
e 286 432
e 286 438
e 286 446
e 286 451
e 286 471
e 286 487
e 286 495
e 286 497
e 286 525
e 286 529
e 286 531
e 286 537
e 286 559
e 286 566
e 286 595
e 286 614
e 286 623
e 286 624
e 286 634
e 286 650
e 286 667
e 286 678
e 286 683
e 286 686
e 286 692
e 286 699
e 286 705
e 286 712
e 286 713
e 286 723
e 286 729
e 286 742
e 286 753
e 286 757
e 286 770
e 286 774
e 286 791
e 286 793
e 286 800
e 286 807
e 286 809
e 286 814
e 286 818
e 286 819
e 286 820
e 286 821
e 286 826
e 286 851
e 286 854
e 286 884
e 286 885
e 286 894
e 286 905
e 286 920
e 286 925
e 286 944
e 286 946
e 286 953
e 286 954
e 286 957
e 286 962
e 286 969
e 286 971
e 286 975
e 286 976
e 286 981
e 287 303
e 287 306
e 287 327
e 287 330
e 287 337
e 287 345
e 287 350
e 287 357
e 287 396
e 287 401
e 287 414
e 287 427
e 287 436
e 287 437
e 287 446
e 287 462
e 287 477
e 287 499
e 287 505
e 287 506
e 287 515
e 287 531
e 287 538
e 287 548
e 287 550
e 287 556
e 287 567
e 287 573
e 287 581
e 287 593
e 287 596
e 287 622
e 287 635
e 287 636
e 287 640
e 287 643
e 287 661
e 287 664
e 287 671
e 287 682
e 287 709
e 287 710
e 287 713
e 287 748
e 287 762
e 287 769
e 287 802
e 287 808
e 287 824
e 287 843
e 287 876
e 287 877
e 287 923
e 287 925
e 287 948
e 287 954
e 287 964
e 287 995
e 288 289
e 288 299
e 288 318
e 288 332
e 288 360
e 288 378
e 288 386
e 288 389
e 288 400
e 288 423
e 288 428
e 288 439
e 288 444
e 288 459
e 288 468
e 288 487
e 288 494
e 288 508
e 288 516
e 288 542
e 288 565
e 288 574
e 288 575
e 288 576
e 288 583
e 288 594
e 288 634
e 288 641
e 288 679
e 288 706
e 288 712
e 288 724
e 288 734
e 288 736
e 288 740
e 288 754
e 288 769
e 288 780
e 288 784
e 288 787
e 288 795
e 288 798
e 288 804
e 288 815
e 288 818
e 288 819
e 288 836
e 288 837
e 288 852
e 288 861
e 288 877
e 288 880
e 288 887
e 288 901
e 288 911
e 288 923
e 288 930
e 288 951
e 288 956
e 288 961
e 288 965
e 288 975
e 288 980
e 288 983
e 289 309
e 289 312
e 289 321
e 289 328
e 289 330
e 289 348
e 289 350
e 289 382
e 289 384
e 289 398
e 289 402
e 289 405
e 289 412
e 289 416
e 289 435
e 289 463
e 289 470
e 289 471
e 289 485
e 289 497
e 289 499
e 289 513
e 289 517
e 289 524
e 289 533
e 289 539
e 289 541
e 289 549
e 289 621
e 289 622
e 289 634
e 289 663
e 289 672
e 289 676
e 289 678
e 289 681
e 289 682
e 289 691
e 289 705
e 289 726
e 289 732
e 289 737
e 289 746
e 289 752
e 289 754
e 289 763
e 289 770
e 289 778
e 289 780
e 289 785
e 289 786
e 289 791
e 289 792
e 289 821
e 289 824
e 289 835
e 289 845
e 289 849
e 289 868
e 289 880
e 289 882
e 289 887
e 289 889
e 289 907
e 289 922
e 289 926
e 289 928
e 289 948
e 289 954
e 289 970
e 289 973
e 289 977
e 289 982
e 289 997
e 289 998
e 290 295
e 290 297
e 290 314
e 290 324
e 290 325
e 290 328
e 290 372
e 290 380
e 290 409
e 290 411
e 290 418
e 290 472
e 290 482
e 290 493
e 290 497
e 290 499
e 290 504
e 290 526
e 290 538
e 290 540
e 290 542
e 290 549
e 290 553
e 290 569
e 290 571
e 290 573
e 290 579
e 290 594
e 290 596
e 290 603
e 290 612
e 290 617
e 290 626
e 290 628
e 290 639
e 290 682
e 290 685
e 290 695
e 290 707
e 290 709
e 290 711
e 290 721
e 290 727
e 290 729
e 290 741
e 290 749
e 290 762
e 290 774
e 290 783
e 290 787
e 290 793
e 290 810
e 290 813
e 290 828
e 290 830
e 290 832
e 290 847
e 290 848
e 290 853
e 290 870
e 290 893
e 290 924
e 290 946
e 290 955
e 290 959
e 290 975
e 290 981
e 290 982
e 290 985
e 290 992
e 291 292
e 291 296
e 291 298
e 291 300
e 291 301
e 291 312
e 291 315
e 291 319
e 291 320
e 291 330
e 291 332
e 291 336
e 291 342
e 291 357
e 291 358
e 291 366
e 291 367
e 291 377
e 291 409
e 291 426
e 291 430
e 291 434
e 291 448
e 291 461
e 291 464
e 291 470
e 291 483
e 291 485
e 291 491
e 291 495
e 291 500
e 291 504
e 291 505
e 291 510
e 291 537
e 291 538
e 291 549
e 291 554
e 291 564
e 291 579
e 291 588
e 291 600
e 291 606
e 291 608
e 291 614
e 291 617
e 291 621
e 291 627
e 291 642
e 291 650
e 291 661
e 291 662
e 291 663
e 291 692
e 291 695
e 291 709
e 291 715
e 291 719
e 291 721
e 291 737
e 291 739
e 291 741
e 291 757
e 291 764
e 291 776
e 291 821
e 291 822
e 291 824
e 291 832
e 291 841
e 291 847
e 291 850
e 291 858
e 291 861
e 291 863
e 291 870
e 291 875
e 291 878
e 291 881
e 291 884
e 291 897
e 291 922
e 291 933
e 291 944
e 291 950
e 291 951
e 291 952
e 291 984
e 291 985
e 291 989
e 291 991
e 291 994
e 291 995
e 291 996
e 291 998
e 292 321
e 292 359
e 292 361
e 292 371
e 292 392
e 292 395
e 292 414
e 292 428
e 292 429
e 292 434
e 292 437
e 292 449
e 292 452
e 292 458
e 292 467
e 292 477
e 292 483
e 292 505
e 292 511
e 292 517
e 292 530
e 292 538
e 292 575
e 292 577
e 292 590
e 292 600
e 292 627
e 292 634
e 292 645
e 292 651
e 292 652
e 292 656
e 292 695
e 292 702
e 292 703
e 292 709
e 292 711
e 292 713
e 292 720
e 292 727
e 292 736
e 292 739
e 292 743
e 292 748
e 292 752
e 292 753
e 292 797
e 292 805
e 292 836
e 292 838
e 292 844
e 292 858
e 292 864
e 292 873
e 292 882
e 292 885
e 292 891
e 292 895
e 292 912
e 292 914
e 292 918
e 292 919
e 292 931
e 292 946
e 292 948
e 292 949
e 292 953
e 292 957
e 292 959
e 292 977
e 292 987
e 292 997
e 293 295
e 293 303
e 293 305
e 293 317
e 293 325
e 293 345
e 293 352
e 293 368
e 293 369
e 293 386
e 293 388
e 293 391
e 293 393
e 293 403
e 293 412
e 293 425
e 293 426
e 293 434
e 293 437
e 293 451
e 293 470
e 293 471
e 293 482
e 293 483
e 293 488
e 293 489
e 293 491
e 293 496
e 293 509
e 293 541
e 293 549
e 293 562
e 293 588
e 293 607
e 293 608
e 293 634
e 293 637
e 293 660
e 293 692
e 293 704
e 293 738
e 293 773
e 293 776
e 293 830
e 293 863
e 293 870
e 293 883
e 293 888
e 293 889
e 293 922
e 293 927
e 293 936
e 293 940
e 293 944
e 293 963
e 293 992
e 293 999
e 293 1000
e 294 295
e 294 324
e 294 325
e 294 329
e 294 331
e 294 333
e 294 334
e 294 374
e 294 408
e 294 422
e 294 425
e 294 431
e 294 432
e 294 446
e 294 456
e 294 468
e 294 478
e 294 499
e 294 501
e 294 506
e 294 517
e 294 530
e 294 557
e 294 586
e 294 590
e 294 614
e 294 622
e 294 637
e 294 663
e 294 666
e 294 671
e 294 672
e 294 688
e 294 698
e 294 704
e 294 723
e 294 726
e 294 736
e 294 743
e 294 744
e 294 751
e 294 775
e 294 786
e 294 787
e 294 788
e 294 797
e 294 818
e 294 840
e 294 844
e 294 856
e 294 860
e 294 863
e 294 865
e 294 879
e 294 889
e 294 899
e 294 911
e 294 912
e 294 916
e 294 936
e 294 957
e 294 962
e 294 970
e 294 971
e 294 980
e 294 985
e 295 314
e 295 321
e 295 330
e 295 333
e 295 344
e 295 348
e 295 350
e 295 357
e 295 359
e 295 360
e 295 363
e 295 373
e 295 388
e 295 396
e 295 397
e 295 399
e 295 408
e 295 438
e 295 460
e 295 480
e 295 488
e 295 491
e 295 502
e 295 507
e 295 525
e 295 528
e 295 531
e 295 534
e 295 540
e 295 541
e 295 547
e 295 555
e 295 556
e 295 559
e 295 568
e 295 580
e 295 596
e 295 597
e 295 598
e 295 604
e 295 613
e 295 618
e 295 639
e 295 649
e 295 651
e 295 663
e 295 670
e 295 675
e 295 682
e 295 690
e 295 691
e 295 692
e 295 703
e 295 706
e 295 720
e 295 744
e 295 757
e 295 776
e 295 778
e 295 787
e 295 794
e 295 811
e 295 826
e 295 832
e 295 835
e 295 838
e 295 868
e 295 891
e 295 907
e 295 908
e 295 911
e 295 913
e 295 918
e 295 919
e 295 921
e 295 926
e 295 935
e 295 939
e 295 940
e 295 947
e 295 954
e 295 983
e 295 994
e 296 298
e 296 312
e 296 322
e 296 333
e 296 343
e 296 353
e 296 355
e 296 361
e 296 368
e 296 381
e 296 411
e 296 418
e 296 434
e 296 444
e 296 448
e 296 466
e 296 494
e 296 498
e 296 504
e 296 524
e 296 528
e 296 529
e 296 530
e 296 535
e 296 543
e 296 553
e 296 561
e 296 564
e 296 573
e 296 575
e 296 619
e 296 627
e 296 642
e 296 643
e 296 648
e 296 655
e 296 659
e 296 660
e 296 662
e 296 673
e 296 681
e 296 697
e 296 703
e 296 711
e 296 719
e 296 725
e 296 730
e 296 750
e 296 752
e 296 766
e 296 771
e 296 781
e 296 821
e 296 832
e 296 846
e 296 849
e 296 850
e 296 855
e 296 863
e 296 878
e 296 881
e 296 889
e 296 940
e 296 948
e 296 960
e 296 962
e 296 971
e 296 975
e 296 977
e 296 980
e 296 983
e 296 985
e 296 988
e 297 299
e 297 302
e 297 303
e 297 310
e 297 317
e 297 318
e 297 326
e 297 327
e 297 329
e 297 332
e 297 340
e 297 366
e 297 378
e 297 382
e 297 391
e 297 396
e 297 399
e 297 406
e 297 407
e 297 411
e 297 421
e 297 424
e 297 426
e 297 456
e 297 481
e 297 482
e 297 485
e 297 516
e 297 531
e 297 557
e 297 558
e 297 569
e 297 573
e 297 579
e 297 584
e 297 590
e 297 593
e 297 594
e 297 598
e 297 621
e 297 645
e 297 648
e 297 658
e 297 669
e 297 676
e 297 677
e 297 687
e 297 691
e 297 696
e 297 706
e 297 717
e 297 725
e 297 749
e 297 764
e 297 788
e 297 790
e 297 801
e 297 828
e 297 849
e 297 850
e 297 851
e 297 853
e 297 866
e 297 869
e 297 874
e 297 915
e 297 924
e 297 945
e 297 961
e 297 965
e 297 967
e 297 985
e 297 994
e 297 999
e 298 313
e 298 314
e 298 319
e 298 336
e 298 337
e 298 339
e 298 351
e 298 362
e 298 370
e 298 375
e 298 379
e 298 402
e 298 406
e 298 417
e 298 432
e 298 436
e 298 449
e 298 454
e 298 458
e 298 476
e 298 478
e 298 486
e 298 488
e 298 494
e 298 504
e 298 508
e 298 510
e 298 518
e 298 532
e 298 535
e 298 550
e 298 567
e 298 570
e 298 576
e 298 578
e 298 579
e 298 581
e 298 582
e 298 586
e 298 618
e 298 619
e 298 645
e 298 661
e 298 662
e 298 664
e 298 673
e 298 692
e 298 699
e 298 700
e 298 709
e 298 720
e 298 724
e 298 728
e 298 741
e 298 744
e 298 760
e 298 775
e 298 783
e 298 820
e 298 822
e 298 845
e 298 851
e 298 856
e 298 858
e 298 884
e 298 890
e 298 891
e 298 892
e 298 893
e 298 896
e 298 914
e 298 915
e 298 917
e 298 932
e 298 949
e 298 964
e 298 968
e 298 970
e 299 315
e 299 316
e 299 322
e 299 331
e 299 339
e 299 342
e 299 348
e 299 350
e 299 358
e 299 369
e 299 387
e 299 394
e 299 407
e 299 410
e 299 413
e 299 426
e 299 432
e 299 436
e 299 446
e 299 456
e 299 457
e 299 464
e 299 471
e 299 475
e 299 481
e 299 487
e 299 491
e 299 505
e 299 507
e 299 520
e 299 530
e 299 535
e 299 546
e 299 554
e 299 558
e 299 570
e 299 572
e 299 573
e 299 577
e 299 585
e 299 610
e 299 624
e 299 633
e 299 634
e 299 649
e 299 651
e 299 662
e 299 663
e 299 672
e 299 675
e 299 691
e 299 699
e 299 716
e 299 727
e 299 756
e 299 759
e 299 765
e 299 767
e 299 769
e 299 779
e 299 786
e 299 792
e 299 800
e 299 807
e 299 815
e 299 834
e 299 847
e 299 856
e 299 877
e 299 880
e 299 885
e 299 892
e 299 893
e 299 894
e 299 898
e 299 907
e 299 964
e 299 965
e 299 984
e 299 996
e 299 1000
e 300 305
e 300 310
e 300 315
e 300 316
e 300 329
e 300 336
e 300 342
e 300 370
e 300 377
e 300 384
e 300 396
e 300 409
e 300 411
e 300 429
e 300 440
e 300 450
e 300 453
e 300 454
e 300 472
e 300 483
e 300 507
e 300 516
e 300 559
e 300 562
e 300 572
e 300 589
e 300 591
e 300 602
e 300 621
e 300 624
e 300 639
e 300 645
e 300 654
e 300 655
e 300 656
e 300 665
e 300 671
e 300 679
e 300 703
e 300 713
e 300 714
e 300 717
e 300 722
e 300 727
e 300 774
e 300 791
e 300 807
e 300 817
e 300 822
e 300 833
e 300 843
e 300 851
e 300 861
e 300 892
e 300 915
e 300 926
e 300 933
e 300 941
e 300 956
e 300 965
e 300 982
e 300 986
e 300 994
e 301 309
e 301 318
e 301 323
e 301 334
e 301 337
e 301 362
e 301 371
e 301 373
e 301 376
e 301 404
e 301 411
e 301 444
e 301 457
e 301 460
e 301 481
e 301 502
e 301 530
e 301 539
e 301 549
e 301 550
e 301 562
e 301 563
e 301 568
e 301 575
e 301 579
e 301 583
e 301 584
e 301 587
e 301 629
e 301 639
e 301 642
e 301 652
e 301 659
e 301 663
e 301 675
e 301 680
e 301 719
e 301 722
e 301 728
e 301 739
e 301 742
e 301 766
e 301 768
e 301 776
e 301 783
e 301 801
e 301 808
e 301 832
e 301 843
e 301 878
e 301 882
e 301 888
e 301 893
e 301 896
e 301 908
e 301 922
e 301 940
e 301 947
e 301 955
e 301 956
e 301 958
e 301 972
e 301 974
e 301 979
e 301 998
e 302 311
e 302 314
e 302 316
e 302 325
e 302 349
e 302 358
e 302 368
e 302 370
e 302 397
e 302 399
e 302 406
e 302 407
e 302 420
e 302 431
e 302 440
e 302 443
e 302 448
e 302 451
e 302 453
e 302 486
e 302 507
e 302 512
e 302 521
e 302 529
e 302 539
e 302 544
e 302 548
e 302 589
e 302 598
e 302 618
e 302 632
e 302 646
e 302 654
e 302 662
e 302 663
e 302 666
e 302 676
e 302 691
e 302 703
e 302 704
e 302 714
e 302 728
e 302 735
e 302 741
e 302 766
e 302 770
e 302 773
e 302 790
e 302 801
e 302 820
e 302 825
e 302 829
e 302 838
e 302 856
e 302 884
e 302 888
e 302 905
e 302 913
e 302 914
e 302 916
e 302 978
e 302 983
e 302 992
e 302 994
e 303 310
e 303 319
e 303 353
e 303 354
e 303 355
e 303 367
e 303 378
e 303 397
e 303 404
e 303 412
e 303 420
e 303 433
e 303 446
e 303 447
e 303 470
e 303 475
e 303 480
e 303 484
e 303 486
e 303 495
e 303 509
e 303 514
e 303 523
e 303 524
e 303 530
e 303 536
e 303 546
e 303 547
e 303 548
e 303 549
e 303 550
e 303 555
e 303 559
e 303 560
e 303 588
e 303 590
e 303 600
e 303 626
e 303 634
e 303 636
e 303 649
e 303 686
e 303 700
e 303 706
e 303 712
e 303 715
e 303 726
e 303 735
e 303 736
e 303 755
e 303 761
e 303 764
e 303 778
e 303 784
e 303 786
e 303 790
e 303 796
e 303 828
e 303 831
e 303 835
e 303 847
e 303 858
e 303 861
e 303 895
e 303 912
e 303 919
e 303 940
e 303 945
e 303 950
e 303 953
e 303 955
e 303 957
e 303 959
e 303 960
e 303 962
e 303 978
e 303 980
e 303 982
e 303 984
e 303 986
e 303 997
e 304 316
e 304 338
e 304 341
e 304 363
e 304 369
e 304 375
e 304 380
e 304 387
e 304 397
e 304 401
e 304 422
e 304 452
e 304 464
e 304 476
e 304 507
e 304 508
e 304 512
e 304 514
e 304 543
e 304 550
e 304 568
e 304 577
e 304 579
e 304 583
e 304 594
e 304 598
e 304 612
e 304 616
e 304 636
e 304 639
e 304 649
e 304 658
e 304 661
e 304 683
e 304 684
e 304 700
e 304 723
e 304 730
e 304 743
e 304 745
e 304 769
e 304 778
e 304 787
e 304 788
e 304 791
e 304 793
e 304 798
e 304 812
e 304 826
e 304 841
e 304 847
e 304 869
e 304 875
e 304 879
e 304 903
e 304 904
e 304 920
e 304 927
e 304 934
e 304 939
e 304 947
e 304 997
e 305 325
e 305 344
e 305 352
e 305 366
e 305 373
e 305 379
e 305 393
e 305 398
e 305 408
e 305 416
e 305 417
e 305 420
e 305 421
e 305 425
e 305 441
e 305 464
e 305 479
e 305 492
e 305 496
e 305 499
e 305 501
e 305 502
e 305 519
e 305 545
e 305 574
e 305 587
e 305 599
e 305 615
e 305 639
e 305 654
e 305 656
e 305 665
e 305 675
e 305 683
e 305 685
e 305 689
e 305 700
e 305 714
e 305 715
e 305 717
e 305 728
e 305 752
e 305 754
e 305 781
e 305 801
e 305 820
e 305 841
e 305 866
e 305 868
e 305 876
e 305 886
e 305 887
e 305 898
e 305 900
e 305 919
e 305 920
e 305 929
e 305 948
e 305 957
e 305 975
e 305 998
e 306 325
e 306 338
e 306 354
e 306 391
e 306 397
e 306 408
e 306 411
e 306 421
e 306 447
e 306 473
e 306 489
e 306 490
e 306 499
e 306 509
e 306 543
e 306 585
e 306 587
e 306 600
e 306 606
e 306 628
e 306 631
e 306 633
e 306 652
e 306 664
e 306 672
e 306 685
e 306 688
e 306 702
e 306 712
e 306 714
e 306 728
e 306 732
e 306 744
e 306 763
e 306 773
e 306 787
e 306 804
e 306 811
e 306 812
e 306 814
e 306 815
e 306 817
e 306 822
e 306 825
e 306 833
e 306 843
e 306 853
e 306 856
e 306 858
e 306 876
e 306 878
e 306 882
e 306 883
e 306 905
e 306 920
e 306 937
e 306 963
e 306 970
e 306 975
e 306 977
e 306 982
e 307 312
e 307 316
e 307 318
e 307 321
e 307 325
e 307 329
e 307 346
e 307 356
e 307 375
e 307 386
e 307 392
e 307 398
e 307 408
e 307 414
e 307 427
e 307 434
e 307 449
e 307 463
e 307 471
e 307 496
e 307 502
e 307 510
e 307 541
e 307 546
e 307 558
e 307 565
e 307 578
e 307 607
e 307 622
e 307 625
e 307 626
e 307 647
e 307 656
e 307 675
e 307 676
e 307 679
e 307 684
e 307 685
e 307 691
e 307 702
e 307 708
e 307 717
e 307 766
e 307 769
e 307 773
e 307 774
e 307 780
e 307 783
e 307 788
e 307 791
e 307 801
e 307 809
e 307 822
e 307 834
e 307 837
e 307 846
e 307 856
e 307 864
e 307 867
e 307 878
e 307 883
e 307 891
e 307 898
e 307 905
e 307 911
e 307 914
e 307 935
e 307 962
e 307 966
e 307 969
e 307 973
e 307 989
e 307 995
e 307 996
e 308 313
e 308 334
e 308 342
e 308 368
e 308 369
e 308 375
e 308 377
e 308 405
e 308 416
e 308 419
e 308 423
e 308 432
e 308 443
e 308 464
e 308 466
e 308 479
e 308 482
e 308 515
e 308 520
e 308 524
e 308 537
e 308 545
e 308 550
e 308 564
e 308 570
e 308 586
e 308 593
e 308 604
e 308 609
e 308 610
e 308 633
e 308 640
e 308 647
e 308 668
e 308 714
e 308 720
e 308 750
e 308 772
e 308 777
e 308 784
e 308 793
e 308 795
e 308 796
e 308 817
e 308 823
e 308 834
e 308 838
e 308 862
e 308 863
e 308 887
e 308 890
e 308 898
e 308 911
e 308 917
e 308 924
e 308 928
e 308 948
e 308 950
e 308 956
e 308 961
e 308 990
e 308 993
e 309 311
e 309 342
e 309 361
e 309 371
e 309 373
e 309 375
e 309 386
e 309 389
e 309 393
e 309 396
e 309 399
e 309 406
e 309 421
e 309 427
e 309 438
e 309 449
e 309 455
e 309 459
e 309 466
e 309 493
e 309 500
e 309 508
e 309 514
e 309 540
e 309 542
e 309 547
e 309 571
e 309 590
e 309 595
e 309 607
e 309 608
e 309 611
e 309 616
e 309 618
e 309 623
e 309 629
e 309 638
e 309 641
e 309 682
e 309 693
e 309 696
e 309 769
e 309 772
e 309 773
e 309 787
e 309 797
e 309 824
e 309 838
e 309 841
e 309 849
e 309 869
e 309 876
e 309 883
e 309 898
e 309 902
e 309 911
e 309 919
e 309 923
e 309 924
e 309 928
e 309 937
e 309 939
e 309 945
e 309 968
e 309 977
e 309 986
e 309 987
e 309 995
e 310 331
e 310 334
e 310 340
e 310 343
e 310 350
e 310 353
e 310 363
e 310 368
e 310 369
e 310 380
e 310 401
e 310 403
e 310 411
e 310 426
e 310 435
e 310 437
e 310 439
e 310 467
e 310 471
e 310 486
e 310 488
e 310 490
e 310 536
e 310 558
e 310 561
e 310 563
e 310 578
e 310 589
e 310 599
e 310 600
e 310 616
e 310 620
e 310 622
e 310 626
e 310 671
e 310 691
e 310 701
e 310 716
e 310 734
e 310 753
e 310 755
e 310 764
e 310 771
e 310 783
e 310 789
e 310 809
e 310 812
e 310 815
e 310 835
e 310 842
e 310 847
e 310 850
e 310 862
e 310 863
e 310 864
e 310 875
e 310 879
e 310 888
e 310 896
e 310 897
e 310 899
e 310 902
e 310 909
e 310 911
e 310 920
e 310 926
e 310 939
e 310 951
e 310 963
e 310 966
e 310 971
e 310 975
e 310 990
e 311 313
e 311 320
e 311 322
e 311 323
e 311 335
e 311 346
e 311 355
e 311 372
e 311 378
e 311 403
e 311 404
e 311 417
e 311 431
e 311 433
e 311 436
e 311 445
e 311 453
e 311 457
e 311 463
e 311 468
e 311 479
e 311 489
e 311 507
e 311 515
e 311 527
e 311 534
e 311 535
e 311 563
e 311 565
e 311 578
e 311 587
e 311 588
e 311 593
e 311 622
e 311 646
e 311 647
e 311 661
e 311 665
e 311 666
e 311 688
e 311 691
e 311 698
e 311 727
e 311 751
e 311 754
e 311 759
e 311 795
e 311 796
e 311 798
e 311 804
e 311 810
e 311 817
e 311 818
e 311 823
e 311 827
e 311 828
e 311 839
e 311 868
e 311 869
e 311 892
e 311 907
e 311 908
e 311 913
e 311 923
e 311 934
e 311 938
e 311 941
e 311 953
e 311 961
e 311 979
e 311 991
e 312 316
e 312 324
e 312 331
e 312 332
e 312 381
e 312 385
e 312 393
e 312 394
e 312 402
e 312 405
e 312 423
e 312 426
e 312 434
e 312 437
e 312 452
e 312 460
e 312 467
e 312 469
e 312 473
e 312 478
e 312 497
e 312 517
e 312 519
e 312 521
e 312 526
e 312 536
e 312 545
e 312 548
e 312 550
e 312 562
e 312 565
e 312 578
e 312 595
e 312 599
e 312 600
e 312 602
e 312 606
e 312 607
e 312 610
e 312 613
e 312 616
e 312 632
e 312 653
e 312 681
e 312 707
e 312 713
e 312 720
e 312 724
e 312 732
e 312 737
e 312 770
e 312 776
e 312 777
e 312 782
e 312 811
e 312 825
e 312 828
e 312 840
e 312 842
e 312 858
e 312 872
e 312 873
e 312 880
e 312 881
e 312 882
e 312 886
e 312 890
e 312 891
e 312 897
e 312 904
e 312 909
e 312 915
e 312 918
e 312 925
e 312 926
e 312 942
e 312 950
e 312 958
e 312 970
e 312 979
e 312 992
e 313 319
e 313 325
e 313 336
e 313 340
e 313 348
e 313 361
e 313 375
e 313 387
e 313 391
e 313 392
e 313 395
e 313 421
e 313 453
e 313 468
e 313 469
e 313 479
e 313 516
e 313 523
e 313 529
e 313 532
e 313 534
e 313 536
e 313 549
e 313 563
e 313 574
e 313 605
e 313 652
e 313 653
e 313 654
e 313 663
e 313 679
e 313 699
e 313 708
e 313 711
e 313 714
e 313 718
e 313 723
e 313 728
e 313 730
e 313 731
e 313 735
e 313 736
e 313 741
e 313 742
e 313 755
e 313 768
e 313 785
e 313 791
e 313 802
e 313 810
e 313 834
e 313 843
e 313 861
e 313 878
e 313 882
e 313 886
e 313 897
e 313 924
e 313 928
e 313 933
e 313 934
e 313 938
e 313 940
e 313 941
e 313 942
e 313 943
e 313 958
e 313 974
e 313 999
e 314 344
e 314 348
e 314 354
e 314 367
e 314 371
e 314 375
e 314 394
e 314 395
e 314 398
e 314 402
e 314 412
e 314 415
e 314 434
e 314 439
e 314 461
e 314 477
e 314 500
e 314 505
e 314 515
e 314 516
e 314 517
e 314 520
e 314 521
e 314 550
e 314 559
e 314 561
e 314 568
e 314 577
e 314 579
e 314 592
e 314 595
e 314 611
e 314 613
e 314 614
e 314 619
e 314 629
e 314 647
e 314 670
e 314 672
e 314 674
e 314 699
e 314 701
e 314 704
e 314 709
e 314 715
e 314 718
e 314 731
e 314 752
e 314 762
e 314 769
e 314 774
e 314 786
e 314 798
e 314 801
e 314 811
e 314 815
e 314 821
e 314 823
e 314 827
e 314 832
e 314 863
e 314 870
e 314 895
e 314 902
e 314 924
e 314 928
e 314 940
e 314 964
e 314 965
e 314 968
e 314 999
e 315 332
e 315 342
e 315 357
e 315 360
e 315 366
e 315 368
e 315 369
e 315 374
e 315 385
e 315 387
e 315 396
e 315 415
e 315 417
e 315 419
e 315 420
e 315 428
e 315 432
e 315 436
e 315 462
e 315 464
e 315 472
e 315 507
e 315 573
e 315 578
e 315 596
e 315 598
e 315 609
e 315 641
e 315 654
e 315 670
e 315 679
e 315 682
e 315 687
e 315 688
e 315 698
e 315 704
e 315 737
e 315 745
e 315 746
e 315 747
e 315 750
e 315 762
e 315 770
e 315 772
e 315 813
e 315 816
e 315 829
e 315 836
e 315 848
e 315 849
e 315 853
e 315 870
e 315 871
e 315 894
e 315 896
e 315 905
e 315 907
e 315 917
e 315 929
e 315 931
e 315 935
e 315 940
e 315 949
e 315 950
e 315 958
e 315 968
e 315 971
e 315 972
e 315 984
e 315 990
e 316 324
e 316 333
e 316 358
e 316 359
e 316 375
e 316 377
e 316 391
e 316 410
e 316 432
e 316 444
e 316 449
e 316 458
e 316 471
e 316 482
e 316 498
e 316 499
e 316 509
e 316 511
e 316 514
e 316 522
e 316 539
e 316 562
e 316 565
e 316 569
e 316 572
e 316 594
e 316 596
e 316 621
e 316 626
e 316 630
e 316 632
e 316 638
e 316 655
e 316 657
e 316 660
e 316 662
e 316 663
e 316 667
e 316 677
e 316 692
e 316 695
e 316 710
e 316 722
e 316 728
e 316 738
e 316 755
e 316 783
e 316 792
e 316 798
e 316 804
e 316 808
e 316 816
e 316 833
e 316 834
e 316 837
e 316 853
e 316 904
e 316 924
e 316 925
e 316 929
e 316 935
e 316 945
e 316 958
e 316 964
e 316 990
e 316 991
e 316 999
e 317 328
e 317 331
e 317 342
e 317 359
e 317 377
e 317 405
e 317 411
e 317 413
e 317 432
e 317 442
e 317 444
e 317 446
e 317 448
e 317 457
e 317 461
e 317 479
e 317 485
e 317 498
e 317 518
e 317 524
e 317 528
e 317 530
e 317 546
e 317 558
e 317 576
e 317 587
e 317 588
e 317 604
e 317 608
e 317 617
e 317 621
e 317 652
e 317 667
e 317 698
e 317 716
e 317 724
e 317 726
e 317 734
e 317 739
e 317 742
e 317 750
e 317 758
e 317 764
e 317 776
e 317 777
e 317 785
e 317 792
e 317 793
e 317 798
e 317 813
e 317 816
e 317 817
e 317 830
e 317 834
e 317 839
e 317 843
e 317 858
e 317 860
e 317 868
e 317 871
e 317 884
e 317 907
e 317 919
e 317 925
e 317 946
e 317 947
e 317 968
e 317 969
e 317 977
e 317 981
e 317 983
e 318 326
e 318 331
e 318 394
e 318 406
e 318 413
e 318 415
e 318 431
e 318 454
e 318 469
e 318 472
e 318 473
e 318 479
e 318 508
e 318 514
e 318 517
e 318 519
e 318 547
e 318 581
e 318 597
e 318 603
e 318 623
e 318 633
e 318 639
e 318 643
e 318 650
e 318 662
e 318 663
e 318 669
e 318 674
e 318 677
e 318 708
e 318 714
e 318 719
e 318 730
e 318 739
e 318 750
e 318 754
e 318 762
e 318 773
e 318 775
e 318 781
e 318 794
e 318 818
e 318 823
e 318 825
e 318 828
e 318 830
e 318 865
e 318 878
e 318 881
e 318 884
e 318 897
e 318 898
e 318 907
e 318 910
e 318 923
e 318 926
e 318 965
e 318 977
e 318 986
e 318 989
e 319 321
e 319 335
e 319 337
e 319 339
e 319 342
e 319 344
e 319 348
e 319 369
e 319 378
e 319 385
e 319 418
e 319 421
e 319 422
e 319 429
e 319 435
e 319 451
e 319 458
e 319 473
e 319 482
e 319 497
e 319 502
e 319 511
e 319 538
e 319 556
e 319 558
e 319 563
e 319 571
e 319 572
e 319 575
e 319 587
e 319 589
e 319 595
e 319 625
e 319 634
e 319 646
e 319 647
e 319 648
e 319 656
e 319 659
e 319 671
e 319 678
e 319 680
e 319 682
e 319 698
e 319 703
e 319 710
e 319 718
e 319 725
e 319 727
e 319 739
e 319 749
e 319 754
e 319 756
e 319 774
e 319 778
e 319 783
e 319 785
e 319 794
e 319 799
e 319 805
e 319 810
e 319 814
e 319 828
e 319 837
e 319 865
e 319 870
e 319 876
e 319 885
e 319 887
e 319 888
e 319 889
e 319 892
e 319 905
e 319 912
e 319 914
e 319 933
e 319 955
e 319 961
e 319 969
e 319 974
e 319 989
e 319 990
e 320 325
e 320 330
e 320 340
e 320 345
e 320 346
e 320 348
e 320 372
e 320 383
e 320 400
e 320 410
e 320 411
e 320 421
e 320 430
e 320 446
e 320 482
e 320 491
e 320 495
e 320 509
e 320 519
e 320 523
e 320 544
e 320 551
e 320 554
e 320 570
e 320 578
e 320 580
e 320 589
e 320 602
e 320 633
e 320 637
e 320 638
e 320 641
e 320 642
e 320 653
e 320 656
e 320 676
e 320 683
e 320 689
e 320 690
e 320 696
e 320 709
e 320 726
e 320 727
e 320 733
e 320 766
e 320 774
e 320 784
e 320 785
e 320 789
e 320 795
e 320 806
e 320 814
e 320 819
e 320 828
e 320 834
e 320 847
e 320 849
e 320 853
e 320 867
e 320 871
e 320 877
e 320 879
e 320 886
e 320 905
e 320 906
e 320 916
e 320 938
e 320 949
e 320 952
e 320 955
e 320 960
e 320 963
e 320 972
e 320 984
e 321 325
e 321 330
e 321 331
e 321 336
e 321 344
e 321 354
e 321 365
e 321 375
e 321 377
e 321 391
e 321 392
e 321 406
e 321 410
e 321 417
e 321 419
e 321 426
e 321 436
e 321 451
e 321 466
e 321 472
e 321 482
e 321 484
e 321 486
e 321 493
e 321 515
e 321 523
e 321 524
e 321 528
e 321 536
e 321 541
e 321 549
e 321 555
e 321 558
e 321 567
e 321 576
e 321 578
e 321 582
e 321 609
e 321 618
e 321 636
e 321 646
e 321 653
e 321 663
e 321 676
e 321 687
e 321 715
e 321 723
e 321 726
e 321 731
e 321 739
e 321 744
e 321 755
e 321 760
e 321 762
e 321 767
e 321 771
e 321 772
e 321 775
e 321 783
e 321 789
e 321 799
e 321 828
e 321 832
e 321 840
e 321 859
e 321 871
e 321 874
e 321 884
e 321 887
e 321 889
e 321 894
e 321 897
e 321 898
e 321 905
e 321 916
e 321 927
e 321 948
e 321 958
e 321 976
e 321 978
e 321 987
e 321 992
e 321 997
e 322 376
e 322 378
e 322 390
e 322 393
e 322 441
e 322 442
e 322 447
e 322 472
e 322 478
e 322 484
e 322 491
e 322 514
e 322 515
e 322 518
e 322 528
e 322 535
e 322 574
e 322 597
e 322 613
e 322 623
e 322 625
e 322 633
e 322 660
e 322 664
e 322 666
e 322 671
e 322 672
e 322 692
e 322 700
e 322 707
e 322 716
e 322 734
e 322 751
e 322 754
e 322 763
e 322 766
e 322 767
e 322 775
e 322 789
e 322 794
e 322 796
e 322 803
e 322 812
e 322 813
e 322 839
e 322 855
e 322 866
e 322 868
e 322 897
e 322 904
e 322 913
e 322 932
e 322 938
e 322 949
e 322 950
e 322 960
e 322 967
e 322 975
e 322 977
e 322 985
e 322 986
e 323 330
e 323 345
e 323 354
e 323 366
e 323 367
e 323 369
e 323 377
e 323 394
e 323 398
e 323 408
e 323 411
e 323 413
e 323 418
e 323 420
e 323 436
e 323 456
e 323 459
e 323 487
e 323 498
e 323 499
e 323 517
e 323 520
e 323 531
e 323 541
e 323 562
e 323 591
e 323 608
e 323 609
e 323 610
e 323 627
e 323 638
e 323 642
e 323 649
e 323 664
e 323 665
e 323 687
e 323 694
e 323 702
e 323 703
e 323 704
e 323 716
e 323 734
e 323 739
e 323 743
e 323 757
e 323 762
e 323 764
e 323 768
e 323 772
e 323 783
e 323 785
e 323 792
e 323 797
e 323 800
e 323 819
e 323 820
e 323 823
e 323 843
e 323 844
e 323 874
e 323 881
e 323 882
e 323 891
e 323 892
e 323 907
e 323 910
e 323 956
e 323 964
e 323 979
e 323 986
e 323 991
e 323 994
e 324 334
e 324 362
e 324 367
e 324 377
e 324 379
e 324 383
e 324 428
e 324 439
e 324 445
e 324 470
e 324 472
e 324 482
e 324 491
e 324 494
e 324 497
e 324 500
e 324 511
e 324 514
e 324 525
e 324 549
e 324 553
e 324 556
e 324 571
e 324 579
e 324 593
e 324 599
e 324 618
e 324 627
e 324 630
e 324 635
e 324 636
e 324 639
e 324 643
e 324 644
e 324 649
e 324 676
e 324 680
e 324 690
e 324 695
e 324 696
e 324 704
e 324 707
e 324 722
e 324 731
e 324 759
e 324 761
e 324 775
e 324 780
e 324 786
e 324 788
e 324 827
e 324 851
e 324 864
e 324 911
e 324 914
e 324 917
e 324 923
e 324 945
e 324 950
e 324 955
e 324 966
e 324 974
e 324 997
e 324 999
e 324 1000
e 325 327
e 325 343
e 325 377
e 325 401
e 325 404
e 325 406
e 325 422
e 325 429
e 325 437
e 325 440
e 325 447
e 325 449
e 325 453
e 325 472
e 325 489
e 325 491
e 325 494
e 325 495
e 325 502
e 325 505
e 325 513
e 325 514
e 325 541
e 325 556
e 325 585
e 325 594
e 325 599
e 325 612
e 325 619
e 325 620
e 325 650
e 325 658
e 325 659
e 325 682
e 325 687
e 325 718
e 325 724
e 325 728
e 325 731
e 325 736
e 325 748
e 325 754
e 325 755
e 325 760
e 325 769
e 325 770
e 325 775
e 325 782
e 325 786
e 325 790
e 325 814
e 325 828
e 325 829
e 325 831
e 325 836
e 325 842
e 325 845
e 325 856
e 325 861
e 325 874
e 325 882
e 325 897
e 325 904
e 325 915
e 325 929
e 325 931
e 325 933
e 325 934
e 325 946
e 325 954
e 325 956
e 325 958
e 325 959
e 325 974
e 325 980
e 325 982
e 325 991
e 325 993
e 325 996
e 326 332
e 326 358
e 326 365
e 326 366
e 326 371
e 326 378
e 326 386
e 326 388
e 326 410
e 326 426
e 326 440
e 326 443
e 326 464
e 326 483
e 326 492
e 326 495
e 326 498
e 326 504
e 326 512
e 326 517
e 326 518
e 326 552
e 326 558
e 326 563
e 326 584
e 326 586
e 326 591
e 326 605
e 326 635
e 326 664
e 326 679
e 326 685
e 326 687
e 326 692
e 326 769
e 326 774
e 326 779
e 326 786
e 326 810
e 326 811
e 326 813
e 326 817
e 326 825
e 326 838
e 326 849
e 326 853
e 326 855
e 326 858
e 326 862
e 326 864
e 326 891
e 326 902
e 326 905
e 326 906
e 326 913
e 326 916
e 326 931
e 326 940
e 326 941
e 326 944
e 326 951
e 326 952
e 326 953
e 326 960
e 326 965
e 326 968
e 326 970
e 326 971
e 326 980
e 326 984
e 326 991
e 326 995
e 326 997
e 327 329
e 327 339
e 327 346
e 327 348
e 327 355
e 327 358
e 327 360
e 327 367
e 327 376
e 327 378
e 327 384
e 327 392
e 327 393
e 327 407
e 327 413
e 327 416
e 327 420
e 327 432
e 327 453
e 327 461
e 327 466
e 327 476
e 327 480
e 327 491
e 327 497
e 327 499
e 327 503
e 327 508
e 327 517
e 327 536
e 327 539
e 327 546
e 327 549
e 327 580
e 327 585
e 327 597
e 327 609
e 327 613
e 327 616
e 327 620
e 327 629
e 327 633
e 327 646
e 327 650
e 327 653
e 327 666
e 327 677
e 327 685
e 327 706
e 327 715
e 327 737
e 327 742
e 327 751
e 327 756
e 327 762
e 327 768
e 327 772
e 327 777
e 327 796
e 327 806
e 327 820
e 327 822
e 327 832
e 327 833
e 327 844
e 327 848
e 327 852
e 327 854
e 327 872
e 327 874
e 327 883
e 327 887
e 327 892
e 327 903
e 327 907
e 327 917
e 327 933
e 327 966
e 327 991
e 327 992
e 327 993
e 328 345
e 328 379
e 328 381
e 328 391
e 328 395
e 328 398
e 328 409
e 328 428
e 328 430
e 328 434
e 328 437
e 328 438
e 328 439
e 328 441
e 328 448
e 328 453
e 328 466
e 328 468
e 328 499
e 328 507
e 328 509
e 328 524
e 328 528
e 328 535
e 328 538
e 328 544
e 328 554
e 328 563
e 328 576
e 328 584
e 328 598
e 328 622
e 328 637
e 328 645
e 328 677
e 328 713
e 328 738
e 328 746
e 328 783
e 328 788
e 328 806
e 328 817
e 328 833
e 328 837
e 328 877
e 328 883
e 328 888
e 328 894
e 328 902
e 328 912
e 328 924
e 328 927
e 328 929
e 328 946
e 328 967
e 328 968
e 328 974
e 328 981
e 328 996
e 328 999
e 328 1000
e 329 334
e 329 363
e 329 364
e 329 374
e 329 421
e 329 424
e 329 426
e 329 430
e 329 432
e 329 438
e 329 440
e 329 442
e 329 449
e 329 458
e 329 467
e 329 474
e 329 485
e 329 486
e 329 492
e 329 493
e 329 516
e 329 520
e 329 523
e 329 527
e 329 532
e 329 545
e 329 548
e 329 551
e 329 568
e 329 572
e 329 596
e 329 612
e 329 620
e 329 638
e 329 661
e 329 663
e 329 665
e 329 681
e 329 683
e 329 690
e 329 697
e 329 698
e 329 713
e 329 722
e 329 725
e 329 735
e 329 741
e 329 747
e 329 749
e 329 760
e 329 766
e 329 768
e 329 774
e 329 780
e 329 781
e 329 782
e 329 784
e 329 801
e 329 811
e 329 812
e 329 825
e 329 828
e 329 835
e 329 838
e 329 841
e 329 843
e 329 853
e 329 860
e 329 861
e 329 862
e 329 872
e 329 876
e 329 885
e 329 889
e 329 899
e 329 909
e 329 915
e 329 944
e 329 949
e 329 950
e 329 961
e 329 969
e 329 971
e 329 981
e 329 994
e 329 999
e 330 331
e 330 379
e 330 380
e 330 400
e 330 405
e 330 420
e 330 425
e 330 429
e 330 431
e 330 455
e 330 458
e 330 463
e 330 471
e 330 486
e 330 489
e 330 490
e 330 491
e 330 508
e 330 519
e 330 525
e 330 527
e 330 535
e 330 537
e 330 545
e 330 551
e 330 565
e 330 568
e 330 569
e 330 580
e 330 591
e 330 615
e 330 617
e 330 647
e 330 665
e 330 667
e 330 680
e 330 684
e 330 685
e 330 688
e 330 696
e 330 703
e 330 732
e 330 735
e 330 742
e 330 755
e 330 758
e 330 762
e 330 772
e 330 776
e 330 792
e 330 803
e 330 808
e 330 813
e 330 818
e 330 826
e 330 831
e 330 838
e 330 858
e 330 879
e 330 881
e 330 890
e 330 897
e 330 913
e 330 926
e 330 941
e 330 951
e 330 973
e 330 974
e 330 985
e 331 346
e 331 348
e 331 362
e 331 375
e 331 378
e 331 384
e 331 387
e 331 389
e 331 397
e 331 424
e 331 426
e 331 450
e 331 470
e 331 474
e 331 476
e 331 477
e 331 495
e 331 508
e 331 518
e 331 525
e 331 541
e 331 557
e 331 558
e 331 578
e 331 582
e 331 586
e 331 588
e 331 603
e 331 604
e 331 612
e 331 646
e 331 657
e 331 661
e 331 664
e 331 674
e 331 691
e 331 710
e 331 719
e 331 741
e 331 771
e 331 774
e 331 776
e 331 777
e 331 804
e 331 808
e 331 811
e 331 818
e 331 822
e 331 840
e 331 854
e 331 856
e 331 857
e 331 858
e 331 862
e 331 882
e 331 888
e 331 895
e 331 901
e 331 911
e 331 922
e 331 962
e 331 964
e 331 976
e 331 983
e 331 996
e 332 337
e 332 339
e 332 361
e 332 370
e 332 372
e 332 382
e 332 383
e 332 386
e 332 407
e 332 419
e 332 443
e 332 462
e 332 484
e 332 496
e 332 507
e 332 510
e 332 518
e 332 526
e 332 536
e 332 548
e 332 562
e 332 579
e 332 594
e 332 600
e 332 607
e 332 611
e 332 636
e 332 646
e 332 650
e 332 654
e 332 655
e 332 661
e 332 678
e 332 684
e 332 695
e 332 698
e 332 712
e 332 713
e 332 718
e 332 719
e 332 727
e 332 749
e 332 753
e 332 759
e 332 761
e 332 774
e 332 775
e 332 786
e 332 791
e 332 799
e 332 808
e 332 817
e 332 832
e 332 841
e 332 846
e 332 847
e 332 884
e 332 886
e 332 887
e 332 888
e 332 924
e 332 943
e 332 947
e 332 963
e 332 977
e 332 993
e 332 996
e 333 335
e 333 336
e 333 342
e 333 344
e 333 355
e 333 356
e 333 376
e 333 381
e 333 396
e 333 402
e 333 405
e 333 418
e 333 431
e 333 435
e 333 439
e 333 476
e 333 480
e 333 505
e 333 514
e 333 519
e 333 535
e 333 547
e 333 556
e 333 560
e 333 571
e 333 588
e 333 590
e 333 593
e 333 594
e 333 596
e 333 606
e 333 646
e 333 650
e 333 664
e 333 668
e 333 674
e 333 689
e 333 717
e 333 751
e 333 755
e 333 770
e 333 784
e 333 801
e 333 807
e 333 816
e 333 822
e 333 833
e 333 846
e 333 851
e 333 853
e 333 857
e 333 858
e 333 871
e 333 937
e 333 944
e 333 946
e 333 953
e 333 961
e 333 975
e 334 361
e 334 371
e 334 373
e 334 376
e 334 381
e 334 386
e 334 392
e 334 404
e 334 419
e 334 428
e 334 433
e 334 434
e 334 440
e 334 461
e 334 465
e 334 467
e 334 470
e 334 478
e 334 483
e 334 489
e 334 498
e 334 507
e 334 516
e 334 538
e 334 567
e 334 589
e 334 595
e 334 636
e 334 648
e 334 658
e 334 666
e 334 669
e 334 671
e 334 708
e 334 715
e 334 723
e 334 726
e 334 770
e 334 798
e 334 808
e 334 810
e 334 811
e 334 828
e 334 843
e 334 854
e 334 855
e 334 859
e 334 861
e 334 865
e 334 892
e 334 894
e 334 899
e 334 902
e 334 904
e 334 911
e 334 913
e 334 915
e 334 922
e 334 930
e 334 936
e 334 947
e 334 951
e 334 971
e 334 972
e 334 981
e 334 985
e 334 998
e 335 339
e 335 385
e 335 390
e 335 422
e 335 426
e 335 432
e 335 443
e 335 457
e 335 460
e 335 462
e 335 469
e 335 481
e 335 496
e 335 511
e 335 512
e 335 518
e 335 523
e 335 534
e 335 583
e 335 614
e 335 619
e 335 620
e 335 638
e 335 669
e 335 671
e 335 704
e 335 725
e 335 728
e 335 737
e 335 739
e 335 740
e 335 746
e 335 759
e 335 766
e 335 792
e 335 806
e 335 813
e 335 837
e 335 850
e 335 881
e 335 886
e 335 890
e 335 902
e 335 906
e 335 919
e 335 937
e 335 942
e 335 952
e 335 977
e 335 986
e 336 337
e 336 354
e 336 356
e 336 373
e 336 377
e 336 384
e 336 400
e 336 404
e 336 415
e 336 419
e 336 425
e 336 437
e 336 452
e 336 455
e 336 470
e 336 477
e 336 482
e 336 506
e 336 521
e 336 542
e 336 574
e 336 576
e 336 583
e 336 591
e 336 594
e 336 595
e 336 607
e 336 612
e 336 640
e 336 656
e 336 667
e 336 676
e 336 692
e 336 708
e 336 722
e 336 724
e 336 739
e 336 741
e 336 754
e 336 755
e 336 763
e 336 768
e 336 784
e 336 787
e 336 803
e 336 806
e 336 808
e 336 817
e 336 824
e 336 846
e 336 853
e 336 861
e 336 875
e 336 896
e 336 905
e 336 907
e 336 918
e 336 924
e 336 929
e 336 931
e 336 944
e 336 959
e 336 961
e 337 339
e 337 361
e 337 367
e 337 385
e 337 394
e 337 396
e 337 464
e 337 492
e 337 493
e 337 494
e 337 503
e 337 518
e 337 535
e 337 550
e 337 561
e 337 591
e 337 595
e 337 601
e 337 612
e 337 620
e 337 623
e 337 629
e 337 630
e 337 668
e 337 676
e 337 681
e 337 693
e 337 708
e 337 716
e 337 726
e 337 737
e 337 744
e 337 745
e 337 749
e 337 752
e 337 754
e 337 762
e 337 779
e 337 781
e 337 783
e 337 791
e 337 804
e 337 807
e 337 834
e 337 835
e 337 844
e 337 854
e 337 857
e 337 859
e 337 864
e 337 880
e 337 885
e 337 887
e 337 888
e 337 890
e 337 894
e 337 908
e 337 925
e 337 932
e 337 934
e 337 940
e 337 941
e 337 944
e 337 948
e 337 961
e 337 964
e 337 976
e 337 995
e 338 368
e 338 385
e 338 394
e 338 400
e 338 401
e 338 403
e 338 417
e 338 420
e 338 428
e 338 429
e 338 431
e 338 452
e 338 459
e 338 464
e 338 488
e 338 504
e 338 506
e 338 509
e 338 527
e 338 538
e 338 541
e 338 548
e 338 567
e 338 580
e 338 582
e 338 596
e 338 603
e 338 609
e 338 641
e 338 645
e 338 647
e 338 648
e 338 668
e 338 678
e 338 683
e 338 712
e 338 718
e 338 719
e 338 729
e 338 756
e 338 766
e 338 770
e 338 784
e 338 809
e 338 817
e 338 825
e 338 836
e 338 837
e 338 840
e 338 848
e 338 854
e 338 855
e 338 859
e 338 861
e 338 879
e 338 888
e 338 894
e 338 902
e 338 908
e 338 911
e 338 933
e 338 934
e 338 940
e 338 952
e 338 961
e 338 973
e 338 979
e 338 999
e 339 341
e 339 342
e 339 347
e 339 351
e 339 373
e 339 374
e 339 380
e 339 390
e 339 411
e 339 437
e 339 443
e 339 456
e 339 469
e 339 494
e 339 508
e 339 517
e 339 518
e 339 522
e 339 549
e 339 550
e 339 559
e 339 565
e 339 566
e 339 570
e 339 600
e 339 610
e 339 630
e 339 640
e 339 647
e 339 650
e 339 651
e 339 655
e 339 658
e 339 669
e 339 673
e 339 675
e 339 683
e 339 706
e 339 720
e 339 732
e 339 739
e 339 745
e 339 752
e 339 756
e 339 760
e 339 796
e 339 811
e 339 813
e 339 830
e 339 839
e 339 845
e 339 847
e 339 850
e 339 853
e 339 855
e 339 873
e 339 874
e 339 875
e 339 879
e 339 888
e 339 919
e 339 920
e 339 968
e 339 991
e 339 998
e 340 358
e 340 363
e 340 368
e 340 371
e 340 374
e 340 382
e 340 384
e 340 398
e 340 410
e 340 412
e 340 434
e 340 440
e 340 476
e 340 482
e 340 507
e 340 518
e 340 586
e 340 604
e 340 606
e 340 609
e 340 619
e 340 626
e 340 629
e 340 648
e 340 651
e 340 663
e 340 665
e 340 667
e 340 683
e 340 694
e 340 697
e 340 707
e 340 710
e 340 714
e 340 720
e 340 722
e 340 756
e 340 765
e 340 770
e 340 781
e 340 783
e 340 799
e 340 803
e 340 812
e 340 813
e 340 817
e 340 818
e 340 827
e 340 834
e 340 842
e 340 850
e 340 865
e 340 876
e 340 881
e 340 888
e 340 945
e 340 954
e 340 958
e 340 976
e 340 979
e 340 997
e 340 1000
e 341 347
e 341 352
e 341 359
e 341 362
e 341 366
e 341 374
e 341 378
e 341 387
e 341 391
e 341 403
e 341 408
e 341 413
e 341 420
e 341 431
e 341 434
e 341 437
e 341 455
e 341 468
e 341 473
e 341 480
e 341 481
e 341 491
e 341 498
e 341 499
e 341 506
e 341 507
e 341 515
e 341 523
e 341 526
e 341 527
e 341 538
e 341 556
e 341 561
e 341 564
e 341 566
e 341 569
e 341 573
e 341 585
e 341 608
e 341 629
e 341 639
e 341 643
e 341 659
e 341 678
e 341 682
e 341 697
e 341 701
e 341 717
e 341 726
e 341 727
e 341 730
e 341 746
e 341 754
e 341 772
e 341 797
e 341 847
e 341 864
e 341 866
e 341 869
e 341 875
e 341 889
e 341 919
e 341 929
e 341 933
e 341 936
e 341 941
e 341 942
e 341 950
e 341 970
e 341 976
e 341 1000
e 342 350
e 342 369
e 342 374
e 342 382
e 342 402
e 342 407
e 342 410
e 342 411
e 342 416
e 342 437
e 342 456
e 342 459
e 342 460
e 342 474
e 342 481
e 342 487
e 342 488
e 342 505
e 342 542
e 342 550
e 342 560
e 342 562
e 342 571
e 342 577
e 342 593
e 342 607
e 342 618
e 342 630
e 342 649
e 342 668
e 342 701
e 342 704
e 342 707
e 342 740
e 342 747
e 342 761
e 342 764
e 342 768
e 342 774
e 342 786
e 342 796
e 342 817
e 342 824
e 342 837
e 342 840
e 342 842
e 342 852
e 342 854
e 342 855
e 342 862
e 342 881
e 342 883
e 342 893
e 342 904
e 342 907
e 342 908
e 342 909
e 342 912
e 342 924
e 342 934
e 342 935
e 342 942
e 342 949
e 342 961
e 342 968
e 342 976
e 342 981
e 342 991
e 343 349
e 343 352
e 343 367
e 343 372
e 343 392
e 343 397
e 343 406
e 343 407
e 343 425
e 343 453
e 343 458
e 343 460
e 343 469
e 343 470
e 343 497
e 343 508
e 343 511
e 343 520
e 343 523
e 343 535
e 343 555
e 343 572
e 343 576
e 343 625
e 343 631
e 343 645
e 343 659
e 343 688
e 343 692
e 343 698
e 343 709
e 343 728
e 343 730
e 343 736
e 343 737
e 343 741
e 343 750
e 343 753
e 343 755
e 343 804
e 343 806
e 343 809
e 343 815
e 343 828
e 343 858
e 343 862
e 343 863
e 343 871
e 343 872
e 343 900
e 343 911
e 343 919
e 343 921
e 343 923
e 343 927
e 343 934
e 343 942
e 343 954
e 343 957
e 343 968
e 343 969
e 343 974
e 343 983
e 343 991
e 343 997
e 344 347
e 344 360
e 344 369
e 344 373
e 344 382
e 344 384
e 344 406
e 344 416
e 344 421
e 344 432
e 344 440
e 344 450
e 344 453
e 344 464
e 344 474
e 344 487
e 344 498
e 344 540
e 344 552
e 344 553
e 344 556
e 344 567
e 344 571
e 344 592
e 344 601
e 344 616
e 344 617
e 344 618
e 344 643
e 344 654
e 344 656
e 344 676
e 344 677
e 344 678
e 344 719
e 344 721
e 344 746
e 344 756
e 344 787
e 344 794
e 344 814
e 344 817
e 344 823
e 344 853
e 344 860
e 344 873
e 344 881
e 344 886
e 344 901
e 344 906
e 344 926
e 344 962
e 344 966
e 344 975
e 345 356
e 345 359
e 345 364
e 345 386
e 345 412
e 345 426
e 345 434
e 345 443
e 345 444
e 345 446
e 345 453
e 345 459
e 345 463
e 345 519
e 345 537
e 345 581
e 345 584
e 345 596
e 345 597
e 345 612
e 345 617
e 345 651
e 345 661
e 345 665
e 345 680
e 345 692
e 345 724
e 345 746
e 345 749
e 345 752
e 345 758
e 345 763
e 345 766
e 345 788
e 345 790
e 345 794
e 345 796
e 345 807
e 345 810
e 345 811
e 345 820
e 345 840
e 345 855
e 345 859
e 345 869
e 345 875
e 345 885
e 345 892
e 345 897
e 345 903
e 345 907
e 345 908
e 345 920
e 345 921
e 345 924
e 345 929
e 345 930
e 345 931
e 345 951
e 345 954
e 345 958
e 345 965
e 345 996
e 346 350
e 346 357
e 346 373
e 346 394
e 346 409
e 346 430
e 346 444
e 346 447
e 346 451
e 346 457
e 346 460
e 346 488
e 346 499
e 346 512
e 346 521
e 346 530
e 346 543
e 346 560
e 346 566
e 346 579
e 346 584
e 346 585
e 346 598
e 346 612
e 346 613
e 346 643
e 346 651
e 346 654
e 346 666
e 346 673
e 346 676
e 346 679
e 346 682
e 346 683
e 346 700
e 346 707
e 346 725
e 346 726
e 346 735
e 346 740
e 346 744
e 346 749
e 346 777
e 346 867
e 346 894
e 346 903
e 346 906
e 346 907
e 346 909
e 346 919
e 346 925
e 346 939
e 346 944
e 346 948
e 346 949
e 346 953
e 346 975
e 346 979
e 346 989
e 347 354
e 347 361
e 347 372
e 347 395
e 347 405
e 347 409
e 347 412
e 347 422
e 347 441
e 347 480
e 347 485
e 347 495
e 347 500
e 347 501
e 347 503
e 347 514
e 347 517
e 347 531
e 347 539
e 347 551
e 347 564
e 347 572
e 347 574
e 347 587
e 347 591
e 347 594
e 347 595
e 347 606
e 347 654
e 347 661
e 347 665
e 347 669
e 347 681
e 347 686
e 347 727
e 347 742
e 347 751
e 347 757
e 347 764
e 347 765
e 347 774
e 347 776
e 347 782
e 347 807
e 347 813
e 347 822
e 347 833
e 347 834
e 347 845
e 347 846
e 347 850
e 347 857
e 347 858
e 347 877
e 347 880
e 347 890
e 347 891
e 347 903
e 347 909
e 347 916
e 347 928
e 347 955
e 347 977
e 347 988
e 348 350
e 348 353
e 348 357
e 348 358
e 348 361
e 348 373
e 348 391
e 348 405
e 348 455
e 348 480
e 348 482
e 348 496
e 348 507
e 348 520
e 348 522
e 348 574
e 348 583
e 348 606
e 348 608
e 348 610
e 348 613
e 348 614
e 348 619
e 348 624
e 348 629
e 348 631
e 348 632
e 348 637
e 348 639
e 348 640
e 348 647
e 348 666
e 348 695
e 348 706
e 348 712
e 348 718
e 348 722
e 348 743
e 348 755
e 348 767
e 348 783
e 348 787
e 348 788
e 348 790
e 348 797
e 348 798
e 348 804
e 348 809
e 348 810
e 348 828
e 348 850
e 348 870
e 348 876
e 348 922
e 348 927
e 348 933
e 348 941
e 348 943
e 348 947
e 348 959
e 348 978
e 348 981
e 348 984
e 348 985
e 348 987
e 348 992
e 349 383
e 349 403
e 349 404
e 349 412
e 349 418
e 349 425
e 349 433
e 349 439
e 349 440
e 349 446
e 349 456
e 349 462
e 349 465
e 349 478
e 349 483
e 349 494
e 349 496
e 349 498
e 349 503
e 349 524
e 349 525
e 349 529
e 349 533
e 349 559
e 349 561
e 349 604
e 349 605
e 349 629
e 349 631
e 349 649
e 349 666
e 349 670
e 349 678
e 349 687
e 349 695
e 349 717
e 349 725
e 349 756
e 349 775
e 349 805
e 349 816
e 349 825
e 349 826
e 349 835
e 349 837
e 349 840
e 349 841
e 349 843
e 349 845
e 349 851
e 349 853
e 349 857
e 349 861
e 349 869
e 349 871
e 349 900
e 349 904
e 349 926
e 349 934
e 349 945
e 349 958
e 349 962
e 349 981
e 349 982
e 349 986
e 349 1000
e 350 368
e 350 373
e 350 399
e 350 402
e 350 410
e 350 418
e 350 426
e 350 431
e 350 452
e 350 459
e 350 462
e 350 476
e 350 478
e 350 485
e 350 495
e 350 503
e 350 518
e 350 527
e 350 535
e 350 547
e 350 559
e 350 571
e 350 577
e 350 589
e 350 611
e 350 622
e 350 623
e 350 639
e 350 665
e 350 672
e 350 676
e 350 680
e 350 700
e 350 706
e 350 707
e 350 726
e 350 727
e 350 742
e 350 753
e 350 760
e 350 762
e 350 782
e 350 788
e 350 797
e 350 811
e 350 812
e 350 819
e 350 834
e 350 869
e 350 872
e 350 874
e 350 890
e 350 915
e 350 923
e 350 945
e 350 948
e 350 958
e 350 970
e 350 973
e 350 977
e 350 982
e 351 355
e 351 377
e 351 378
e 351 393
e 351 406
e 351 412
e 351 424
e 351 437
e 351 438
e 351 452
e 351 456
e 351 469
e 351 470
e 351 472
e 351 473
e 351 477
e 351 485
e 351 513
e 351 529
e 351 540
e 351 546
e 351 567
e 351 576
e 351 597
e 351 600
e 351 611
e 351 657
e 351 670
e 351 682
e 351 700
e 351 710
e 351 725
e 351 727
e 351 740
e 351 755
e 351 795
e 351 804
e 351 817
e 351 820
e 351 835
e 351 836
e 351 837
e 351 854
e 351 861
e 351 865
e 351 879
e 351 896
e 351 911
e 351 938
e 351 939
e 351 944
e 351 948
e 351 952
e 351 967
e 351 968
e 351 970
e 351 978
e 351 997
e 352 359
e 352 373
e 352 383
e 352 390
e 352 391
e 352 408
e 352 427
e 352 436
e 352 439
e 352 440
e 352 442
e 352 447
e 352 448
e 352 455
e 352 462
e 352 466
e 352 482
e 352 537
e 352 543
e 352 545
e 352 558
e 352 564
e 352 566
e 352 578
e 352 610
e 352 616
e 352 618
e 352 641
e 352 648
e 352 652
e 352 655
e 352 656
e 352 659
e 352 675
e 352 683
e 352 690
e 352 694
e 352 708
e 352 712
e 352 715
e 352 720
e 352 723
e 352 727
e 352 728
e 352 732
e 352 733
e 352 786
e 352 791
e 352 809
e 352 820
e 352 824
e 352 825
e 352 830
e 352 848
e 352 858
e 352 861
e 352 878
e 352 882
e 352 886
e 352 887
e 352 899
e 352 913
e 352 914
e 352 921
e 352 928
e 352 952
e 352 968
e 352 969
e 352 980
e 352 981
e 352 988
e 353 358
e 353 359
e 353 361
e 353 367
e 353 380
e 353 391
e 353 405
e 353 407
e 353 409
e 353 413
e 353 420
e 353 444
e 353 450
e 353 455
e 353 457
e 353 491
e 353 494
e 353 507
e 353 510
e 353 512
e 353 516
e 353 517
e 353 552
e 353 553
e 353 561
e 353 584
e 353 601
e 353 605
e 353 608
e 353 626
e 353 627
e 353 628
e 353 645
e 353 663
e 353 674
e 353 691
e 353 695
e 353 698
e 353 709
e 353 721
e 353 739
e 353 756
e 353 765
e 353 770
e 353 776
e 353 778
e 353 818
e 353 819
e 353 821
e 353 822
e 353 824
e 353 825
e 353 826
e 353 831
e 353 856
e 353 865
e 353 876
e 353 890
e 353 896
e 353 900
e 353 911
e 353 925
e 353 929
e 353 931
e 353 941
e 353 964
e 353 983
e 353 994
e 354 368
e 354 369
e 354 395
e 354 402
e 354 457
e 354 459
e 354 462
e 354 465
e 354 474
e 354 481
e 354 485
e 354 486
e 354 489
e 354 495
e 354 506
e 354 521
e 354 526
e 354 527
e 354 530
e 354 532
e 354 535
e 354 538
e 354 555
e 354 569
e 354 577
e 354 579
e 354 582
e 354 598
e 354 618
e 354 640
e 354 641
e 354 643
e 354 658
e 354 671
e 354 672
e 354 678
e 354 681
e 354 687
e 354 700
e 354 702
e 354 724
e 354 732
e 354 740
e 354 742
e 354 744
e 354 746
e 354 750
e 354 758
e 354 771
e 354 779
e 354 781
e 354 802
e 354 809
e 354 814
e 354 816
e 354 835
e 354 837
e 354 849
e 354 856
e 354 865
e 354 908
e 354 917
e 354 928
e 354 942
e 354 945
e 354 960
e 354 988
e 354 990
e 355 357
e 355 371
e 355 393
e 355 394
e 355 398
e 355 409
e 355 423
e 355 430
e 355 451
e 355 462
e 355 471
e 355 477
e 355 486
e 355 494
e 355 509
e 355 511
e 355 542
e 355 545
e 355 592
e 355 610
e 355 630
e 355 632
e 355 633
e 355 640
e 355 651
e 355 671
e 355 674
e 355 680
e 355 691
e 355 703
e 355 712
e 355 733
e 355 745
e 355 756
e 355 766
e 355 777
e 355 797
e 355 798
e 355 804
e 355 811
e 355 819
e 355 821
e 355 878
e 355 886
e 355 890
e 355 891
e 355 912
e 355 917
e 355 921
e 355 935
e 355 950
e 355 955
e 355 956
e 355 961
e 355 980
e 355 987
e 355 1000
e 356 358
e 356 370
e 356 372
e 356 373
e 356 393
e 356 400
e 356 402
e 356 421
e 356 428
e 356 434
e 356 445
e 356 456
e 356 457
e 356 458
e 356 472
e 356 474
e 356 478
e 356 490
e 356 504
e 356 507
e 356 513
e 356 520
e 356 523
e 356 553
e 356 569
e 356 575
e 356 599
e 356 602
e 356 606
e 356 618
e 356 624
e 356 631
e 356 649
e 356 662
e 356 677
e 356 690
e 356 692
e 356 730
e 356 743
e 356 745
e 356 751
e 356 762
e 356 773
e 356 791
e 356 802
e 356 812
e 356 834
e 356 836
e 356 842
e 356 851
e 356 860
e 356 861
e 356 881
e 356 902
e 356 909
e 356 911
e 356 930
e 356 943
e 356 950
e 357 370
e 357 375
e 357 376
e 357 381
e 357 407
e 357 417
e 357 425
e 357 431
e 357 434
e 357 438
e 357 440
e 357 443
e 357 450
e 357 454
e 357 458
e 357 463
e 357 473
e 357 488
e 357 494
e 357 510
e 357 529
e 357 541
e 357 544
e 357 574
e 357 592
e 357 597
e 357 604
e 357 608
e 357 627
e 357 629
e 357 643
e 357 644
e 357 658
e 357 663
e 357 681
e 357 683
e 357 685
e 357 695
e 357 697
e 357 709
e 357 723
e 357 729
e 357 733
e 357 737
e 357 745
e 357 755
e 357 760
e 357 768
e 357 771
e 357 775
e 357 778
e 357 788
e 357 795
e 357 800
e 357 825
e 357 833
e 357 841
e 357 848
e 357 854
e 357 863
e 357 881
e 357 924
e 357 936
e 357 942
e 357 946
e 357 957
e 357 960
e 357 966
e 357 982
e 357 992
e 357 993
e 357 1000
e 358 366
e 358 382
e 358 387
e 358 399
e 358 402
e 358 406
e 358 414
e 358 416
e 358 429
e 358 434
e 358 435
e 358 441
e 358 446
e 358 457
e 358 465
e 358 467
e 358 480
e 358 481
e 358 488
e 358 493
e 358 499
e 358 511
e 358 513
e 358 541
e 358 553
e 358 560
e 358 565
e 358 582
e 358 584
e 358 590
e 358 595
e 358 597
e 358 611
e 358 616
e 358 619
e 358 624
e 358 627
e 358 640
e 358 641
e 358 646
e 358 653
e 358 660
e 358 669
e 358 688
e 358 712
e 358 713
e 358 714
e 358 744
e 358 755
e 358 772
e 358 773
e 358 774
e 358 784
e 358 791
e 358 841
e 358 843
e 358 852
e 358 858
e 358 880
e 358 893
e 358 894
e 358 899
e 358 900
e 358 908
e 358 909
e 358 912
e 358 917
e 358 937
e 358 944
e 358 947
e 358 961
e 358 975
e 358 986
e 359 373
e 359 378
e 359 380
e 359 394
e 359 397
e 359 403
e 359 425
e 359 432
e 359 433
e 359 442
e 359 447
e 359 462
e 359 463
e 359 471
e 359 487
e 359 503
e 359 505
e 359 512
e 359 526
e 359 527
e 359 532
e 359 552
e 359 554
e 359 570
e 359 578
e 359 587
e 359 596
e 359 614
e 359 621
e 359 624
e 359 642
e 359 677
e 359 686
e 359 691
e 359 693
e 359 700
e 359 708
e 359 717
e 359 724
e 359 730
e 359 733
e 359 744
e 359 750
e 359 754
e 359 755
e 359 765
e 359 793
e 359 794
e 359 797
e 359 814
e 359 823
e 359 826
e 359 838
e 359 842
e 359 869
e 359 870
e 359 871
e 359 881
e 359 884
e 359 904
e 359 905
e 359 937
e 359 940
e 359 941
e 359 949
e 359 950
e 359 963
e 359 964
e 359 982
e 359 998
e 360 362
e 360 369
e 360 370
e 360 371
e 360 387
e 360 400
e 360 425
e 360 444
e 360 452
e 360 479
e 360 484
e 360 487
e 360 509
e 360 513
e 360 520
e 360 525
e 360 548
e 360 550
e 360 553
e 360 554
e 360 557
e 360 569
e 360 582
e 360 583
e 360 585
e 360 586
e 360 590
e 360 594
e 360 598
e 360 606
e 360 629
e 360 634
e 360 656
e 360 664
e 360 669
e 360 670
e 360 699
e 360 711
e 360 739
e 360 740
e 360 744
e 360 753
e 360 764
e 360 766
e 360 789
e 360 790
e 360 819
e 360 838
e 360 843
e 360 844
e 360 847
e 360 852
e 360 857
e 360 863
e 360 865
e 360 917
e 360 920
e 360 922
e 360 923
e 360 936
e 360 941
e 360 943
e 360 944
e 360 954
e 360 956
e 361 376
e 361 386
e 361 393
e 361 398
e 361 414
e 361 420
e 361 421
e 361 435
e 361 469
e 361 476
e 361 489
e 361 499
e 361 501
e 361 514
e 361 520
e 361 526
e 361 542
e 361 555
e 361 571
e 361 608
e 361 622
e 361 637
e 361 653
e 361 660
e 361 662
e 361 677
e 361 711
e 361 718
e 361 723
e 361 762
e 361 766
e 361 782
e 361 795
e 361 802
e 361 808
e 361 821
e 361 823
e 361 864
e 361 869
e 361 883
e 361 926
e 361 928
e 361 939
e 361 967
e 361 973
e 361 974
e 361 982
e 361 989
e 361 998
e 362 374
e 362 387
e 362 393
e 362 396
e 362 407
e 362 408
e 362 414
e 362 430
e 362 433
e 362 443
e 362 457
e 362 474
e 362 479
e 362 491
e 362 506
e 362 523
e 362 530
e 362 534
e 362 540
e 362 551
e 362 566
e 362 568
e 362 588
e 362 599
e 362 622
e 362 634
e 362 655
e 362 659
e 362 661
e 362 665
e 362 668
e 362 675
e 362 681
e 362 685
e 362 687
e 362 690
e 362 693
e 362 699
e 362 704
e 362 708
e 362 712
e 362 738
e 362 756
e 362 775
e 362 802
e 362 806
e 362 812
e 362 813
e 362 831
e 362 840
e 362 857
e 362 860
e 362 868
e 362 870
e 362 875
e 362 898
e 362 900
e 362 902
e 362 926
e 362 929
e 362 932
e 362 933
e 362 942
e 362 944
e 362 949
e 362 975
e 362 981
e 362 999
e 363 366
e 363 368
e 363 372
e 363 374
e 363 386
e 363 394
e 363 402
e 363 415
e 363 424
e 363 430
e 363 432
e 363 439
e 363 444
e 363 468
e 363 472
e 363 480
e 363 504
e 363 507
e 363 517
e 363 523
e 363 528
e 363 534
e 363 540
e 363 552
e 363 554
e 363 564
e 363 568
e 363 570
e 363 587
e 363 620
e 363 621
e 363 630
e 363 638
e 363 652
e 363 653
e 363 654
e 363 673
e 363 676
e 363 681
e 363 742
e 363 746
e 363 750
e 363 780
e 363 798
e 363 802
e 363 810
e 363 821
e 363 825
e 363 855
e 363 858
e 363 867
e 363 868
e 363 873
e 363 874
e 363 876
e 363 879
e 363 888
e 363 893
e 363 900
e 363 908
e 363 909
e 363 917
e 363 942
e 363 946
e 363 961
e 363 965
e 363 967
e 363 973
e 363 991
e 364 373
e 364 385
e 364 402
e 364 412
e 364 418
e 364 419
e 364 425
e 364 446
e 364 450
e 364 452
e 364 466
e 364 471
e 364 476
e 364 490
e 364 491
e 364 495
e 364 500
e 364 502
e 364 510
e 364 511
e 364 528
e 364 537
e 364 538
e 364 539
e 364 550
e 364 553
e 364 559
e 364 564
e 364 567
e 364 587
e 364 592
e 364 609
e 364 612
e 364 630
e 364 631
e 364 666
e 364 675
e 364 678
e 364 684
e 364 700
e 364 701
e 364 709
e 364 712
e 364 713
e 364 733
e 364 735
e 364 740
e 364 762
e 364 776
e 364 779
e 364 788
e 364 809
e 364 831
e 364 832
e 364 846
e 364 850
e 364 871
e 364 880
e 364 898
e 364 908
e 364 911
e 364 922
e 364 928
e 364 936
e 364 949
e 364 970
e 364 991
e 364 997
e 364 1000
e 365 377
e 365 396
e 365 405
e 365 415
e 365 419
e 365 440
e 365 455
e 365 469
e 365 475
e 365 478
e 365 489
e 365 506
e 365 512
e 365 533
e 365 535
e 365 537
e 365 538
e 365 542
e 365 543
e 365 548
e 365 561
e 365 566
e 365 576
e 365 613
e 365 614
e 365 624
e 365 627
e 365 634
e 365 646
e 365 655
e 365 657
e 365 661
e 365 667
e 365 675
e 365 681
e 365 697
e 365 699
e 365 703
e 365 709
e 365 754
e 365 757
e 365 771
e 365 780
e 365 790
e 365 794
e 365 817
e 365 829
e 365 842
e 365 855
e 365 879
e 365 882
e 365 888
e 365 891
e 365 896
e 365 904
e 365 920
e 365 930
e 365 941
e 365 961
e 365 964
e 365 991
e 365 998
e 366 389
e 366 395
e 366 406
e 366 413
e 366 422
e 366 439
e 366 447
e 366 468
e 366 472
e 366 489
e 366 505
e 366 507
e 366 514
e 366 518
e 366 529
e 366 545
e 366 548
e 366 557
e 366 574
e 366 593
e 366 598
e 366 620
e 366 621
e 366 630
e 366 643
e 366 651
e 366 656
e 366 702
e 366 709
e 366 729
e 366 736
e 366 747
e 366 764
e 366 779
e 366 785
e 366 801
e 366 804
e 366 818
e 366 821
e 366 830
e 366 837
e 366 847
e 366 854
e 366 872
e 366 883
e 366 887
e 366 905
e 366 917
e 366 922
e 366 961
e 366 970
e 366 993
e 366 1000
e 367 388
e 367 392
e 367 424
e 367 425
e 367 442
e 367 446
e 367 447
e 367 462
e 367 470
e 367 474
e 367 482
e 367 484
e 367 503
e 367 513
e 367 522
e 367 523
e 367 527
e 367 538
e 367 539
e 367 544
e 367 555
e 367 557
e 367 570
e 367 586
e 367 628
e 367 641
e 367 642
e 367 644
e 367 649
e 367 666
e 367 679
e 367 696
e 367 699
e 367 700
e 367 708
e 367 725
e 367 729
e 367 731
e 367 734
e 367 782
e 367 794
e 367 795
e 367 801
e 367 817
e 367 837
e 367 876
e 367 883
e 367 888
e 367 907
e 367 908
e 367 918
e 367 929
e 367 930
e 367 932
e 367 935
e 367 944
e 367 961
e 367 962
e 367 979
e 367 982
e 367 985
e 367 1000
e 368 372
e 368 374
e 368 376
e 368 385
e 368 397
e 368 402
e 368 406
e 368 414
e 368 426
e 368 448
e 368 451
e 368 468
e 368 489
e 368 504
e 368 529
e 368 536
e 368 556
e 368 561
e 368 562
e 368 567
e 368 574
e 368 593
e 368 594
e 368 596
e 368 638
e 368 646
e 368 647
e 368 648
e 368 650
e 368 651
e 368 667
e 368 684
e 368 704
e 368 708
e 368 723
e 368 730
e 368 749
e 368 767
e 368 777
e 368 781
e 368 789
e 368 791
e 368 796
e 368 847
e 368 859
e 368 861
e 368 866
e 368 872
e 368 883
e 368 899
e 368 927
e 368 953
e 368 955
e 368 968
e 368 1000
e 369 371
e 369 404
e 369 432
e 369 436
e 369 452
e 369 462
e 369 471
e 369 477
e 369 497
e 369 518
e 369 521
e 369 536
e 369 541
e 369 557
e 369 560
e 369 563
e 369 590
e 369 599
e 369 637
e 369 653
e 369 657
e 369 664
e 369 666
e 369 679
e 369 698
e 369 703
e 369 709
e 369 711
e 369 713
e 369 714
e 369 719
e 369 721
e 369 725
e 369 744
e 369 745
e 369 748
e 369 755
e 369 760
e 369 776
e 369 778
e 369 779
e 369 787
e 369 796
e 369 817
e 369 827
e 369 872
e 369 885
e 369 887
e 369 890
e 369 917
e 369 922
e 369 924
e 369 930
e 369 932
e 369 937
e 369 938
e 369 944
e 369 971
e 369 985
e 369 995
e 370 377
e 370 408
e 370 422
e 370 425
e 370 443
e 370 450
e 370 462
e 370 465
e 370 470
e 370 472
e 370 474
e 370 475
e 370 483
e 370 485
e 370 491
e 370 499
e 370 512
e 370 518
e 370 530
e 370 539
e 370 541
e 370 546
e 370 547
e 370 548
e 370 588
e 370 589
e 370 627
e 370 641
e 370 649
e 370 651
e 370 656
e 370 664
e 370 672
e 370 678
e 370 684
e 370 694
e 370 714
e 370 720
e 370 723
e 370 729
e 370 745
e 370 746
e 370 748
e 370 755
e 370 757
e 370 760
e 370 764
e 370 768
e 370 812
e 370 859
e 370 864
e 370 882
e 370 902
e 370 911
e 370 926
e 370 935
e 370 963
e 370 969
e 370 975
e 370 976
e 370 982
e 371 392
e 371 401
e 371 448
e 371 468
e 371 472
e 371 475
e 371 492
e 371 498
e 371 504
e 371 512
e 371 523
e 371 529
e 371 530
e 371 544
e 371 573
e 371 587
e 371 593
e 371 597
e 371 599
e 371 613
e 371 618
e 371 631
e 371 632
e 371 633
e 371 652
e 371 669
e 371 672
e 371 674
e 371 691
e 371 696
e 371 700
e 371 702
e 371 719
e 371 720
e 371 728
e 371 741
e 371 749
e 371 752
e 371 760
e 371 762
e 371 777
e 371 791
e 371 797
e 371 804
e 371 817
e 371 835
e 371 846
e 371 861
e 371 864
e 371 870
e 371 880
e 371 894
e 371 924
e 371 958
e 371 964
e 371 980
e 371 994
e 372 385
e 372 407
e 372 448
e 372 455
e 372 461
e 372 478
e 372 486
e 372 488
e 372 506
e 372 516
e 372 524
e 372 533
e 372 539
e 372 543
e 372 553
e 372 569
e 372 573
e 372 579
e 372 585
e 372 586
e 372 596
e 372 597
e 372 627
e 372 635
e 372 648
e 372 655
e 372 656
e 372 659
e 372 664
e 372 675
e 372 676
e 372 679
e 372 711
e 372 719
e 372 721
e 372 722
e 372 727
e 372 728
e 372 733
e 372 748
e 372 749
e 372 787
e 372 798
e 372 814
e 372 817
e 372 831
e 372 839
e 372 840
e 372 843
e 372 850
e 372 857
e 372 869
e 372 880
e 372 904
e 372 927
e 372 940
e 372 941
e 372 947
e 372 958
e 372 988
e 372 999
e 373 375
e 373 394
e 373 407
e 373 417
e 373 421
e 373 423
e 373 424
e 373 430
e 373 431
e 373 448
e 373 461
e 373 466
e 373 467
e 373 475
e 373 476
e 373 490
e 373 516
e 373 527
e 373 531
e 373 563
e 373 564
e 373 590
e 373 592
e 373 602
e 373 610
e 373 657
e 373 660
e 373 662
e 373 663
e 373 675
e 373 681
e 373 685
e 373 700
e 373 712
e 373 714
e 373 721
e 373 728
e 373 744
e 373 754
e 373 756
e 373 760
e 373 765
e 373 772
e 373 780
e 373 782
e 373 805
e 373 813
e 373 822
e 373 823
e 373 828
e 373 833
e 373 854
e 373 877
e 373 879
e 373 886
e 373 894
e 373 899
e 373 949
e 373 955
e 373 965
e 373 966
e 373 982
e 373 995
e 374 384
e 374 392
e 374 404
e 374 420
e 374 437
e 374 446
e 374 461
e 374 496
e 374 497
e 374 514
e 374 535
e 374 537
e 374 554
e 374 566
e 374 576
e 374 589
e 374 592
e 374 607
e 374 617
e 374 628
e 374 629
e 374 633
e 374 645
e 374 649
e 374 654
e 374 677
e 374 681
e 374 682
e 374 686
e 374 697
e 374 704
e 374 705
e 374 716
e 374 724
e 374 727
e 374 740
e 374 750
e 374 788
e 374 816
e 374 822
e 374 843
e 374 857
e 374 906
e 374 909
e 374 916
e 374 922
e 374 927
e 374 935
e 374 944
e 374 974
e 374 975
e 374 979
e 374 982
e 374 989
e 374 991
e 374 993
e 374 996
e 374 999
e 375 378
e 375 379
e 375 382
e 375 389
e 375 398
e 375 400
e 375 404
e 375 406
e 375 417
e 375 420
e 375 423
e 375 425
e 375 433
e 375 434
e 375 439
e 375 446
e 375 449
e 375 458
e 375 462
e 375 477
e 375 487
e 375 490
e 375 491
e 375 498
e 375 499
e 375 514
e 375 520
e 375 538
e 375 540
e 375 542
e 375 544
e 375 559
e 375 576
e 375 583
e 375 589
e 375 601
e 375 610
e 375 612
e 375 618
e 375 620
e 375 625
e 375 638
e 375 646
e 375 661
e 375 671
e 375 676
e 375 705
e 375 708
e 375 726
e 375 733
e 375 734
e 375 743
e 375 751
e 375 752
e 375 753
e 375 787
e 375 795
e 375 799
e 375 800
e 375 812
e 375 827
e 375 829
e 375 831
e 375 841
e 375 852
e 375 863
e 375 866
e 375 879
e 375 883
e 375 884
e 375 889
e 375 891
e 375 898
e 375 917
e 375 918
e 375 924
e 375 925
e 375 949
e 375 977
e 375 988
e 376 379
e 376 387
e 376 389
e 376 401
e 376 403
e 376 421
e 376 424
e 376 425
e 376 427
e 376 434
e 376 435
e 376 437
e 376 449
e 376 459
e 376 464
e 376 467
e 376 470
e 376 523
e 376 530
e 376 544
e 376 565
e 376 569
e 376 589
e 376 591
e 376 598
e 376 623
e 376 626
e 376 627
e 376 644
e 376 645
e 376 650
e 376 656
e 376 661
e 376 667
e 376 680
e 376 696
e 376 699
e 376 702
e 376 703
e 376 706
e 376 720
e 376 732
e 376 733
e 376 736
e 376 737
e 376 741
e 376 746
e 376 747
e 376 755
e 376 757
e 376 767
e 376 796
e 376 817
e 376 820
e 376 821
e 376 856
e 376 871
e 376 872
e 376 884
e 376 903
e 376 908
e 376 910
e 376 914
e 376 918
e 376 919
e 376 936
e 376 937
e 376 945
e 376 974
e 376 985
e 376 996
e 376 999
e 377 390
e 377 397
e 377 398
e 377 399
e 377 403
e 377 404
e 377 406
e 377 412
e 377 420
e 377 429
e 377 447
e 377 451
e 377 454
e 377 487
e 377 502
e 377 510
e 377 526
e 377 530
e 377 541
e 377 546
e 377 551
e 377 553
e 377 581
e 377 589
e 377 606
e 377 609
e 377 610
e 377 628
e 377 630
e 377 640
e 377 652
e 377 673
e 377 678
e 377 700
e 377 706
e 377 714
e 377 715
e 377 718
e 377 724
e 377 729
e 377 736
e 377 740
e 377 744
e 377 757
e 377 766
e 377 771
e 377 778
e 377 782
e 377 783
e 377 784
e 377 799
e 377 823
e 377 824
e 377 828
e 377 835
e 377 857
e 377 861
e 377 863
e 377 887
e 377 898
e 377 899
e 377 902
e 377 918
e 377 920
e 377 958
e 377 959
e 377 967
e 377 996
e 377 998
e 378 383
e 378 385
e 378 386
e 378 401
e 378 409
e 378 411
e 378 430
e 378 440
e 378 460
e 378 468
e 378 470
e 378 477
e 378 490
e 378 510
e 378 513
e 378 524
e 378 530
e 378 543
e 378 545
e 378 563
e 378 565
e 378 573
e 378 579
e 378 581
e 378 586
e 378 590
e 378 598
e 378 645
e 378 659
e 378 663
e 378 677
e 378 690
e 378 692
e 378 695
e 378 716
e 378 729
e 378 743
e 378 777
e 378 786
e 378 792
e 378 835
e 378 836
e 378 855
e 378 856
e 378 858
e 378 862
e 378 897
e 378 900
e 378 954
e 378 958
e 378 969
e 378 972
e 379 391
e 379 400
e 379 414
e 379 433
e 379 448
e 379 467
e 379 484
e 379 516
e 379 528
e 379 535
e 379 563
e 379 584
e 379 596
e 379 602
e 379 619
e 379 643
e 379 644
e 379 651
e 379 652
e 379 658
e 379 698
e 379 712
e 379 717
e 379 723
e 379 725
e 379 735
e 379 741
e 379 744
e 379 751
e 379 753
e 379 764
e 379 769
e 379 778
e 379 782
e 379 795
e 379 800
e 379 805
e 379 806
e 379 807
e 379 818
e 379 826
e 379 846
e 379 850
e 379 852
e 379 878
e 379 880
e 379 898
e 379 917
e 379 919
e 379 925
e 379 927
e 379 942
e 379 947
e 379 948
e 379 959
e 379 987
e 379 992
e 380 391
e 380 394
e 380 403
e 380 408
e 380 415
e 380 418
e 380 420
e 380 424
e 380 426
e 380 429
e 380 480
e 380 482
e 380 488
e 380 512
e 380 523
e 380 528
e 380 537
e 380 550
e 380 583
e 380 595
e 380 604
e 380 620
e 380 625
e 380 626
e 380 633
e 380 640
e 380 643
e 380 646
e 380 650
e 380 680
e 380 711
e 380 726
e 380 740
e 380 747
e 380 751
e 380 755
e 380 765
e 380 782
e 380 803
e 380 829
e 380 837
e 380 858
e 380 866
e 380 884
e 380 886
e 380 890
e 380 898
e 380 907
e 380 914
e 380 920
e 380 935
e 380 936
e 380 939
e 380 940
e 380 947
e 380 951
e 380 956
e 380 958
e 380 959
e 380 962
e 380 999
e 381 394
e 381 396
e 381 407
e 381 410
e 381 418
e 381 420
e 381 422
e 381 434
e 381 436
e 381 441
e 381 450
e 381 461
e 381 463
e 381 468
e 381 472
e 381 475
e 381 508
e 381 523
e 381 524
e 381 543
e 381 546
e 381 548
e 381 552
e 381 556
e 381 575
e 381 576
e 381 581
e 381 583
e 381 601
e 381 604
e 381 624
e 381 628
e 381 636
e 381 640
e 381 644
e 381 647
e 381 658
e 381 687
e 381 694
e 381 702
e 381 715
e 381 719
e 381 791
e 381 811
e 381 828
e 381 830
e 381 831
e 381 845
e 381 847
e 381 848
e 381 883
e 381 901
e 381 911
e 381 915
e 381 917
e 381 926
e 381 940
e 381 942
e 381 947
e 381 957
e 381 961
e 381 966
e 381 987
e 381 995
e 381 996
e 382 399
e 382 408
e 382 425
e 382 426
e 382 457
e 382 473
e 382 506
e 382 512
e 382 526
e 382 533
e 382 543
e 382 595
e 382 623
e 382 629
e 382 642
e 382 643
e 382 659
e 382 667
e 382 671
e 382 675
e 382 678
e 382 686
e 382 690
e 382 709
e 382 724
e 382 731
e 382 737
e 382 749
e 382 752
e 382 754
e 382 762
e 382 764
e 382 768
e 382 769
e 382 770
e 382 785
e 382 810
e 382 817
e 382 827
e 382 830
e 382 834
e 382 837
e 382 841
e 382 850
e 382 859
e 382 862
e 382 879
e 382 883
e 382 886
e 382 889
e 382 902
e 382 903
e 382 907
e 382 908
e 382 914
e 382 917
e 382 918
e 382 968
e 382 972
e 382 976
e 382 981
e 383 416
e 383 422
e 383 429
e 383 432
e 383 436
e 383 441
e 383 448
e 383 484
e 383 499
e 383 503
e 383 506
e 383 526
e 383 533
e 383 551
e 383 569
e 383 573
e 383 577
e 383 601
e 383 612
e 383 645
e 383 659
e 383 669
e 383 689
e 383 705
e 383 706
e 383 719
e 383 727
e 383 730
e 383 737
e 383 750
e 383 764
e 383 781
e 383 807
e 383 819
e 383 832
e 383 833
e 383 840
e 383 862
e 383 863
e 383 870
e 383 876
e 383 878
e 383 885
e 383 886
e 383 892
e 383 903
e 383 926
e 383 931
e 383 940
e 383 941
e 383 958
e 383 972
e 383 994
e 384 394
e 384 396
e 384 409
e 384 416
e 384 427
e 384 437
e 384 465
e 384 472
e 384 478
e 384 499
e 384 503
e 384 511
e 384 516
e 384 524
e 384 526
e 384 527
e 384 531
e 384 542
e 384 546
e 384 550
e 384 574
e 384 592
e 384 597
e 384 599
e 384 602
e 384 603
e 384 607
e 384 609
e 384 632
e 384 637
e 384 677
e 384 678
e 384 692
e 384 708
e 384 716
e 384 732
e 384 748
e 384 753
e 384 756
e 384 772
e 384 780
e 384 793
e 384 810
e 384 812
e 384 833
e 384 844
e 384 855
e 384 857
e 384 863
e 384 876
e 384 882
e 384 884
e 384 906
e 384 909
e 384 912
e 384 922
e 384 940
e 384 958
e 384 963
e 384 972
e 384 974
e 384 984
e 384 992
e 385 386
e 385 398
e 385 401
e 385 402
e 385 406
e 385 409
e 385 423
e 385 443
e 385 444
e 385 448
e 385 449
e 385 459
e 385 460
e 385 474
e 385 480
e 385 491
e 385 497
e 385 550
e 385 553
e 385 554
e 385 557
e 385 592
e 385 598
e 385 611
e 385 617
e 385 618
e 385 620
e 385 629
e 385 653
e 385 660
e 385 670
e 385 687
e 385 695
e 385 700
e 385 701
e 385 714
e 385 716
e 385 717
e 385 730
e 385 732
e 385 734
e 385 739
e 385 760
e 385 768
e 385 770
e 385 794
e 385 802
e 385 809
e 385 825
e 385 830
e 385 835
e 385 879
e 385 886
e 385 899
e 385 905
e 385 930
e 385 938
e 385 945
e 385 975
e 385 986
e 385 987
e 385 990
e 385 994
e 385 999
e 386 387
e 386 395
e 386 401
e 386 407
e 386 412
e 386 418
e 386 423
e 386 440
e 386 453
e 386 458
e 386 497
e 386 500
e 386 527
e 386 530
e 386 537
e 386 538
e 386 544
e 386 552
e 386 561
e 386 563
e 386 565
e 386 567
e 386 571
e 386 587
e 386 588
e 386 590
e 386 594
e 386 601
e 386 613
e 386 622
e 386 623
e 386 640
e 386 647
e 386 663
e 386 667
e 386 681
e 386 685
e 386 694
e 386 726
e 386 744
e 386 745
e 386 749
e 386 751
e 386 756
e 386 762
e 386 777
e 386 782
e 386 788
e 386 790
e 386 792
e 386 806
e 386 814
e 386 821
e 386 832
e 386 868
e 386 870
e 386 877
e 386 881
e 386 890
e 386 910
e 386 912
e 386 913
e 386 916
e 386 924
e 386 925
e 386 928
e 386 930
e 386 940
e 386 944
e 386 947
e 386 949
e 386 973
e 386 978
e 386 990
e 386 993
e 386 996
e 387 390
e 387 402
e 387 406
e 387 419
e 387 423
e 387 438
e 387 440
e 387 450
e 387 463
e 387 471
e 387 486
e 387 489
e 387 512
e 387 520
e 387 522
e 387 525
e 387 532
e 387 541
e 387 548
e 387 561
e 387 577
e 387 583
e 387 588
e 387 598
e 387 600
e 387 605
e 387 614
e 387 624
e 387 627
e 387 628
e 387 633
e 387 666
e 387 672
e 387 685
e 387 691
e 387 710
e 387 711
e 387 731
e 387 741
e 387 744
e 387 754
e 387 765
e 387 766
e 387 777
e 387 784
e 387 808
e 387 815
e 387 817
e 387 821
e 387 824
e 387 825
e 387 827
e 387 840
e 387 850
e 387 855
e 387 895
e 387 900
e 387 901
e 387 915
e 387 929
e 387 930
e 387 952
e 387 953
e 387 973
e 387 974
e 387 978
e 387 980
e 387 982
e 387 986
e 387 988
e 387 991
e 387 995
e 388 408
e 388 410
e 388 427
e 388 430
e 388 438
e 388 479
e 388 482
e 388 491
e 388 504
e 388 509
e 388 516
e 388 519
e 388 524
e 388 535
e 388 539
e 388 548
e 388 553
e 388 598
e 388 605
e 388 606
e 388 629
e 388 661
e 388 669
e 388 671
e 388 673
e 388 685
e 388 717
e 388 720
e 388 725
e 388 731
e 388 740
e 388 745
e 388 755
e 388 775
e 388 778
e 388 784
e 388 793
e 388 794
e 388 795
e 388 798
e 388 801
e 388 806
e 388 810
e 388 814
e 388 816
e 388 821
e 388 822
e 388 830
e 388 840
e 388 846
e 388 852
e 388 864
e 388 865
e 388 873
e 388 876
e 388 898
e 388 900
e 388 902
e 388 920
e 388 928
e 388 935
e 388 948
e 388 953
e 388 955
e 388 965
e 388 986
e 389 417
e 389 422
e 389 434
e 389 441
e 389 447
e 389 468
e 389 501
e 389 505
e 389 516
e 389 535
e 389 560
e 389 567
e 389 568
e 389 576
e 389 589
e 389 604
e 389 627
e 389 636
e 389 656
e 389 684
e 389 696
e 389 701
e 389 719
e 389 731
e 389 741
e 389 748
e 389 754
e 389 758
e 389 775
e 389 785
e 389 787
e 389 788
e 389 794
e 389 799
e 389 859
e 389 864
e 389 875
e 389 876
e 389 888
e 389 892
e 389 914
e 389 924
e 389 939
e 389 945
e 389 963
e 389 967
e 389 976
e 389 989
e 389 997
e 390 405
e 390 410
e 390 418
e 390 426
e 390 428
e 390 448
e 390 452
e 390 463
e 390 472
e 390 473
e 390 492
e 390 494
e 390 502
e 390 509
e 390 522
e 390 547
e 390 551
e 390 559
e 390 560
e 390 561
e 390 562
e 390 568
e 390 575
e 390 582
e 390 609
e 390 623
e 390 627
e 390 649
e 390 651
e 390 663
e 390 691
e 390 710
e 390 717
e 390 729
e 390 746
e 390 763
e 390 770
e 390 776
e 390 778
e 390 785
e 390 791
e 390 793
e 390 822
e 390 831
e 390 859
e 390 863
e 390 865
e 390 876
e 390 901
e 390 904
e 390 933
e 390 951
e 390 979
e 390 988
e 391 392
e 391 412
e 391 426
e 391 476
e 391 479
e 391 487
e 391 499
e 391 507
e 391 536
e 391 551
e 391 553
e 391 554
e 391 559
e 391 572
e 391 582
e 391 586
e 391 595
e 391 607
e 391 623
e 391 634
e 391 636
e 391 644
e 391 649
e 391 653
e 391 654
e 391 664
e 391 668
e 391 672
e 391 679
e 391 690
e 391 770
e 391 773
e 391 786
e 391 794
e 391 799
e 391 810
e 391 815
e 391 820
e 391 825
e 391 844
e 391 855
e 391 869
e 391 880
e 391 903
e 391 917
e 391 938
e 391 939
e 391 967
e 391 971
e 391 986
e 392 418
e 392 424
e 392 426
e 392 441
e 392 449
e 392 457
e 392 458
e 392 466
e 392 475
e 392 478
e 392 480
e 392 488
e 392 512
e 392 517
e 392 518
e 392 520
e 392 525
e 392 527
e 392 532
e 392 546
e 392 552
e 392 560
e 392 579
e 392 581
e 392 585
e 392 608
e 392 610
e 392 613
e 392 620
e 392 626
e 392 643
e 392 648
e 392 652
e 392 653
e 392 662
e 392 682
e 392 684
e 392 711
e 392 716
e 392 790
e 392 796
e 392 798
e 392 815
e 392 829
e 392 830
e 392 861
e 392 866
e 392 881
e 392 895
e 392 898
e 392 902
e 392 904
e 392 916
e 392 934
e 392 943
e 392 959
e 392 963
e 392 979
e 392 988
e 393 404
e 393 405
e 393 409
e 393 430
e 393 465
e 393 472
e 393 480
e 393 481
e 393 482
e 393 500
e 393 503
e 393 504
e 393 506
e 393 510
e 393 541
e 393 544
e 393 550
e 393 560
e 393 572
e 393 575
e 393 576
e 393 581
e 393 584
e 393 586
e 393 595
e 393 598
e 393 617
e 393 635
e 393 649
e 393 664
e 393 668
e 393 673
e 393 679
e 393 732
e 393 733
e 393 742
e 393 754
e 393 755
e 393 771
e 393 787
e 393 807
e 393 828
e 393 838
e 393 888
e 393 895
e 393 910
e 393 915
e 393 926
e 393 928
e 393 940
e 393 950
e 393 963
e 393 980
e 393 999
e 394 407
e 394 415
e 394 442
e 394 444
e 394 448
e 394 460
e 394 461
e 394 467
e 394 468
e 394 488
e 394 507
e 394 509
e 394 511
e 394 548
e 394 549
e 394 552
e 394 568
e 394 584
e 394 603
e 394 616
e 394 628
e 394 638
e 394 640
e 394 671
e 394 674
e 394 691
e 394 692
e 394 695
e 394 696
e 394 717
e 394 724
e 394 736
e 394 739
e 394 756
e 394 762
e 394 793
e 394 798
e 394 803
e 394 807
e 394 813
e 394 816
e 394 823
e 394 847
e 394 852
e 394 871
e 394 873
e 394 883
e 394 888
e 394 896
e 394 901
e 394 902
e 394 907
e 394 911
e 394 922
e 394 955
e 394 969
e 394 970
e 394 981
e 395 398
e 395 406
e 395 421
e 395 439
e 395 447
e 395 455
e 395 460
e 395 466
e 395 474
e 395 477
e 395 488
e 395 491
e 395 505
e 395 528
e 395 530
e 395 531
e 395 532
e 395 533
e 395 534
e 395 538
e 395 547
e 395 573
e 395 592
e 395 598
e 395 607
e 395 621
e 395 624
e 395 626
e 395 627
e 395 648
e 395 662
e 395 678
e 395 679
e 395 682
e 395 695
e 395 702
e 395 711
e 395 721
e 395 729
e 395 732
e 395 734
e 395 763
e 395 764
e 395 786
e 395 792
e 395 794
e 395 829
e 395 832
e 395 843
e 395 882
e 395 893
e 395 897
e 395 907
e 395 926
e 395 941
e 395 948
e 395 967
e 395 968
e 395 980
e 395 990
e 395 993
e 396 447
e 396 451
e 396 485
e 396 500
e 396 510
e 396 513
e 396 519
e 396 537
e 396 542
e 396 560
e 396 564
e 396 569
e 396 574
e 396 614
e 396 628
e 396 631
e 396 633
e 396 658
e 396 660
e 396 661
e 396 664
e 396 685
e 396 693
e 396 694
e 396 699
e 396 709
e 396 714
e 396 724
e 396 725
e 396 731
e 396 734
e 396 741
e 396 751
e 396 759
e 396 765
e 396 773
e 396 778
e 396 782
e 396 790
e 396 796
e 396 799
e 396 804
e 396 810
e 396 812
e 396 824
e 396 830
e 396 831
e 396 834
e 396 846
e 396 861
e 396 867
e 396 893
e 396 939
e 396 962
e 396 971
e 396 975
e 396 978
e 396 985
e 397 401
e 397 417
e 397 421
e 397 440
e 397 445
e 397 463
e 397 471
e 397 472
e 397 484
e 397 485
e 397 532
e 397 535
e 397 538
e 397 546
e 397 590
e 397 597
e 397 602
e 397 605
e 397 607
e 397 610
e 397 612
e 397 614
e 397 616
e 397 622
e 397 628
e 397 632
e 397 643
e 397 651
e 397 666
e 397 667
e 397 675
e 397 678
e 397 712
e 397 719
e 397 756
e 397 759
e 397 774
e 397 822
e 397 839
e 397 857
e 397 873
e 397 887
e 397 901
e 397 910
e 397 919
e 397 920
e 397 930
e 397 941
e 397 945
e 397 978
e 397 983
e 397 987
e 397 988
e 397 992
e 397 997
e 397 998
e 398 399
e 398 406
e 398 412
e 398 437
e 398 441
e 398 450
e 398 459
e 398 462
e 398 465
e 398 468
e 398 483
e 398 500
e 398 530
e 398 538
e 398 542
e 398 544
e 398 552
e 398 555
e 398 557
e 398 586
e 398 588
e 398 596
e 398 615
e 398 634
e 398 635
e 398 659
e 398 660
e 398 662
e 398 703
e 398 709
e 398 712
e 398 716
e 398 722
e 398 728
e 398 739
e 398 747
e 398 759
e 398 762
e 398 768
e 398 772
e 398 776
e 398 783
e 398 800
e 398 811
e 398 812
e 398 822
e 398 829
e 398 832
e 398 836
e 398 853
e 398 859
e 398 860
e 398 861
e 398 865
e 398 869
e 398 877
e 398 879
e 398 880
e 398 892
e 398 910
e 398 916
e 398 917
e 398 928
e 398 932
e 398 943
e 398 945
e 398 955
e 398 957
e 398 959
e 398 960
e 398 988
e 398 989
e 398 991
e 399 430
e 399 431
e 399 433
e 399 436
e 399 443
e 399 455
e 399 496
e 399 497
e 399 513
e 399 552
e 399 563
e 399 569
e 399 581
e 399 587
e 399 589
e 399 603
e 399 611
e 399 613
e 399 615
e 399 616
e 399 621
e 399 637
e 399 638
e 399 643
e 399 650
e 399 658
e 399 668
e 399 684
e 399 686
e 399 694
e 399 695
e 399 725
e 399 742
e 399 771
e 399 773
e 399 782
e 399 789
e 399 807
e 399 811
e 399 812
e 399 828
e 399 838
e 399 853
e 399 883
e 399 891
e 399 900
e 399 902
e 399 912
e 399 921
e 399 930
e 399 942
e 399 958
e 399 975
e 399 999
e 400 416
e 400 419
e 400 432
e 400 434
e 400 435
e 400 438
e 400 458
e 400 462
e 400 479
e 400 482
e 400 490
e 400 504
e 400 536
e 400 558
e 400 571
e 400 579
e 400 597
e 400 618
e 400 633
e 400 654
e 400 658
e 400 666
e 400 704
e 400 708
e 400 711
e 400 729
e 400 740
e 400 747
e 400 748
e 400 753
e 400 767
e 400 785
e 400 787
e 400 830
e 400 851
e 400 859
e 400 871
e 400 872
e 400 875
e 400 884
e 400 893
e 400 894
e 400 898
e 400 900
e 400 902
e 400 905
e 400 912
e 400 916
e 400 931
e 400 939
e 400 947
e 400 998
e 400 1000
e 401 422
e 401 426
e 401 439
e 401 443
e 401 446
e 401 455
e 401 461
e 401 469
e 401 476
e 401 492
e 401 493
e 401 494
e 401 510
e 401 511
e 401 519
e 401 522
e 401 525
e 401 533
e 401 552
e 401 554
e 401 574
e 401 580
e 401 594
e 401 602
e 401 604
e 401 612
e 401 622
e 401 628
e 401 637
e 401 646
e 401 679
e 401 701
e 401 717
e 401 724
e 401 744
e 401 757
e 401 771
e 401 779
e 401 785
e 401 788
e 401 806
e 401 807
e 401 835
e 401 848
e 401 853
e 401 858
e 401 870
e 401 885
e 401 893
e 401 909
e 401 911
e 401 925
e 401 928
e 401 933
e 401 989
e 401 998
e 402 406
e 402 413
e 402 418
e 402 443
e 402 458
e 402 460
e 402 467
e 402 493
e 402 494
e 402 502
e 402 528
e 402 540
e 402 542
e 402 549
e 402 551
e 402 554
e 402 559
e 402 562
e 402 564
e 402 584
e 402 590
e 402 633
e 402 645
e 402 653
e 402 659
e 402 686
e 402 689
e 402 699
e 402 725
e 402 743
e 402 745
e 402 769
e 402 777
e 402 778
e 402 783
e 402 795
e 402 803
e 402 805
e 402 809
e 402 814
e 402 834
e 402 835
e 402 854
e 402 863
e 402 867
e 402 879
e 402 885
e 402 894
e 402 895
e 402 920
e 402 921
e 402 928
e 402 943
e 402 953
e 402 963
e 402 969
e 402 972
e 402 975
e 402 976
e 403 410
e 403 412
e 403 419
e 403 443
e 403 448
e 403 454
e 403 471
e 403 478
e 403 494
e 403 517
e 403 520
e 403 537
e 403 541
e 403 546
e 403 552
e 403 570
e 403 579
e 403 581
e 403 614
e 403 618
e 403 621
e 403 628
e 403 629
e 403 653
e 403 662
e 403 663
e 403 668
e 403 669
e 403 684
e 403 685
e 403 703
e 403 708
e 403 712
e 403 719
e 403 739
e 403 745
e 403 751
e 403 760
e 403 761
e 403 766
e 403 772
e 403 774
e 403 779
e 403 784
e 403 788
e 403 798
e 403 807
e 403 832
e 403 843
e 403 852
e 403 908
e 403 932
e 403 938
e 403 951
e 403 967
e 403 975
e 403 991
e 403 993
e 404 413
e 404 422
e 404 431
e 404 437
e 404 440
e 404 456
e 404 458
e 404 465
e 404 496
e 404 515
e 404 522
e 404 542
e 404 549
e 404 550
e 404 553
e 404 561
e 404 571
e 404 582
e 404 592
e 404 602
e 404 625
e 404 632
e 404 648
e 404 678
e 404 687
e 404 691
e 404 702
e 404 707
e 404 713
e 404 741
e 404 783
e 404 785
e 404 788
e 404 791
e 404 792
e 404 793
e 404 827
e 404 834
e 404 841
e 404 847
e 404 853
e 404 855
e 404 860
e 404 870
e 404 880
e 404 881
e 404 890
e 404 893
e 404 923
e 404 925
e 404 935
e 404 940
e 405 419
e 405 422
e 405 424
e 405 433
e 405 458
e 405 471
e 405 481
e 405 482
e 405 483
e 405 512
e 405 538
e 405 551
e 405 560
e 405 579
e 405 588
e 405 590
e 405 634
e 405 636
e 405 645
e 405 658
e 405 663
e 405 686
e 405 707
e 405 711
e 405 716
e 405 724
e 405 737
e 405 750
e 405 753
e 405 784
e 405 796
e 405 820
e 405 827
e 405 834
e 405 836
e 405 880
e 405 887
e 405 893
e 405 900
e 405 917
e 405 918
e 405 925
e 405 933
e 405 940
e 405 948
e 405 977
e 406 407
e 406 408
e 406 418
e 406 421
e 406 437
e 406 440
e 406 447
e 406 471
e 406 477
e 406 484
e 406 485
e 406 498
e 406 505
e 406 506
e 406 507
e 406 523
e 406 562
e 406 563
e 406 564
e 406 570
e 406 580
e 406 597
e 406 612
e 406 617
e 406 623
e 406 626
e 406 630
e 406 637
e 406 639
e 406 652
e 406 663
e 406 664
e 406 677
e 406 697
e 406 707
e 406 715
e 406 719
e 406 722
e 406 730
e 406 731
e 406 733
e 406 753
e 406 761
e 406 770
e 406 775
e 406 779
e 406 789
e 406 794
e 406 801
e 406 812
e 406 813
e 406 816
e 406 827
e 406 833
e 406 837
e 406 852
e 406 863
e 406 880
e 406 897
e 406 911
e 406 916
e 406 919
e 406 920
e 406 924
e 406 944
e 406 960
e 406 967
e 406 976
e 406 986
e 406 996
e 407 415
e 407 423
e 407 425
e 407 432
e 407 489
e 407 496
e 407 522
e 407 533
e 407 545
e 407 548
e 407 568
e 407 580
e 407 590
e 407 623
e 407 624
e 407 631
e 407 634
e 407 639
e 407 666
e 407 674
e 407 699
e 407 701
e 407 713
e 407 720
e 407 730
e 407 736
e 407 754
e 407 765
e 407 785
e 407 787
e 407 812
e 407 834
e 407 853
e 407 863
e 407 866
e 407 875
e 407 936
e 407 946
e 407 971
e 407 977
e 407 994
e 408 412
e 408 414
e 408 427
e 408 431
e 408 479
e 408 487
e 408 492
e 408 517
e 408 525
e 408 544
e 408 561
e 408 603
e 408 615
e 408 618
e 408 622
e 408 634
e 408 662
e 408 665
e 408 679
e 408 686
e 408 702
e 408 703
e 408 716
e 408 724
e 408 739
e 408 758
e 408 774
e 408 783
e 408 786
e 408 803
e 408 804
e 408 807
e 408 838
e 408 842
e 408 847
e 408 856
e 408 863
e 408 870
e 408 878
e 408 901
e 408 908
e 408 914
e 408 917
e 408 919
e 408 932
e 408 941
e 408 955
e 408 963
e 408 975
e 408 991
e 409 413
e 409 421
e 409 423
e 409 426
e 409 428
e 409 440
e 409 461
e 409 491
e 409 497
e 409 506
e 409 528
e 409 535
e 409 546
e 409 560
e 409 568
e 409 582
e 409 598
e 409 608
e 409 614
e 409 619
e 409 621
e 409 649
e 409 662
e 409 666
e 409 672
e 409 689
e 409 691
e 409 703
e 409 710
e 409 716
e 409 717
e 409 719
e 409 744
e 409 747
e 409 754
e 409 756
e 409 763
e 409 764
e 409 766
e 409 779
e 409 781
e 409 805
e 409 806
e 409 807
e 409 808
e 409 839
e 409 849
e 409 850
e 409 854
e 409 865
e 409 877
e 409 910
e 409 916
e 409 918
e 409 930
e 409 957
e 409 962
e 409 969
e 409 973
e 409 974
e 410 457
e 410 463
e 410 469
e 410 473
e 410 476
e 410 481
e 410 505
e 410 506
e 410 516
e 410 522
e 410 529
e 410 540
e 410 543
e 410 545
e 410 559
e 410 566
e 410 583
e 410 594
e 410 608
e 410 630
e 410 658
e 410 659
e 410 669
e 410 675
e 410 677
e 410 681
e 410 689
e 410 693
e 410 717
e 410 720
e 410 727
e 410 744
e 410 749
e 410 771
e 410 773
e 410 785
e 410 791
e 410 799
e 410 803
e 410 804
e 410 864
e 410 867
e 410 879
e 410 880
e 410 887
e 410 911
e 410 928
e 410 959
e 410 963
e 410 976
e 411 417
e 411 420
e 411 443
e 411 465
e 411 467
e 411 468
e 411 494
e 411 500
e 411 515
e 411 521
e 411 522
e 411 557
e 411 570
e 411 575
e 411 581
e 411 601
e 411 603
e 411 604
e 411 612
e 411 614
e 411 627
e 411 629
e 411 637
e 411 656
e 411 665
e 411 711
e 411 767
e 411 770
e 411 776
e 411 779
e 411 786
e 411 794
e 411 800
e 411 801
e 411 819
e 411 845
e 411 852
e 411 860
e 411 897
e 411 935
e 411 938
e 411 951
e 411 955
e 411 956
e 411 958
e 411 969
e 411 981
e 411 983
e 411 984
e 412 442
e 412 443
e 412 453
e 412 454
e 412 477
e 412 484
e 412 532
e 412 535
e 412 537
e 412 539
e 412 546
e 412 573
e 412 598
e 412 604
e 412 605
e 412 624
e 412 643
e 412 645
e 412 646
e 412 649
e 412 650
e 412 681
e 412 706
e 412 717
e 412 749
e 412 750
e 412 751
e 412 752
e 412 754
e 412 762
e 412 784
e 412 816
e 412 840
e 412 848
e 412 875
e 412 884
e 412 890
e 412 899
e 412 928
e 412 929
e 412 935
e 412 944
e 412 961
e 412 968
e 412 981
e 412 998
e 413 426
e 413 427
e 413 428
e 413 446
e 413 450
e 413 455
e 413 456
e 413 479
e 413 485
e 413 488
e 413 517
e 413 537
e 413 540
e 413 542
e 413 555
e 413 563
e 413 566
e 413 584
e 413 590
e 413 616
e 413 617
e 413 644
e 413 652
e 413 665
e 413 669
e 413 670
e 413 671
e 413 680
e 413 706
e 413 714
e 413 720
e 413 722
e 413 726
e 413 758
e 413 763
e 413 772
e 413 777
e 413 779
e 413 784
e 413 795
e 413 798
e 413 824
e 413 825
e 413 851
e 413 856
e 413 869
e 413 873
e 413 884
e 413 919
e 413 931
e 413 941
e 413 944
e 413 948
e 413 949
e 413 964
e 413 987
e 414 417
e 414 419
e 414 420
e 414 439
e 414 440
e 414 443
e 414 455
e 414 456
e 414 459
e 414 462
e 414 472
e 414 483
e 414 486
e 414 507
e 414 517
e 414 538
e 414 551
e 414 553
e 414 564
e 414 569
e 414 584
e 414 592
e 414 594
e 414 624
e 414 633
e 414 644
e 414 661
e 414 666
e 414 676
e 414 683
e 414 684
e 414 705
e 414 734
e 414 738
e 414 753
e 414 754
e 414 755
e 414 757
e 414 764
e 414 766
e 414 794
e 414 802
e 414 803
e 414 808
e 414 818
e 414 827
e 414 832
e 414 841
e 414 843
e 414 846
e 414 851
e 414 855
e 414 857
e 414 885
e 414 918
e 414 928
e 414 936
e 414 941
e 414 942
e 414 971
e 414 972
e 414 973
e 414 988
e 414 989
e 414 990
e 414 1000
e 415 422
e 415 424
e 415 433
e 415 439
e 415 440
e 415 447
e 415 448
e 415 451
e 415 459
e 415 464
e 415 468
e 415 469
e 415 470
e 415 471
e 415 475
e 415 476
e 415 479
e 415 482
e 415 491
e 415 492
e 415 510
e 415 514
e 415 529
e 415 537
e 415 568
e 415 575
e 415 584
e 415 621
e 415 637
e 415 638
e 415 642
e 415 643
e 415 649
e 415 654
e 415 675
e 415 709
e 415 710
e 415 711
e 415 725
e 415 761
e 415 762
e 415 766
e 415 776
e 415 780
e 415 791
e 415 808
e 415 832
e 415 850
e 415 860
e 415 864
e 415 884
e 415 886
e 415 904
e 415 914
e 415 916
e 415 938
e 415 964
e 415 967
e 415 971
e 415 979
e 415 996
e 416 426
e 416 457
e 416 459
e 416 464
e 416 484
e 416 496
e 416 518
e 416 520
e 416 524
e 416 539
e 416 547
e 416 549
e 416 557
e 416 561
e 416 576
e 416 589
e 416 597
e 416 606
e 416 636
e 416 646
e 416 647
e 416 655
e 416 659
e 416 662
e 416 680
e 416 681
e 416 686
e 416 691
e 416 692
e 416 698
e 416 710
e 416 725
e 416 731
e 416 732
e 416 733
e 416 738
e 416 749
e 416 754
e 416 756
e 416 758
e 416 761
e 416 778
e 416 800
e 416 823
e 416 836
e 416 838
e 416 841
e 416 847
e 416 848
e 416 849
e 416 852
e 416 864
e 416 867
e 416 869
e 416 877
e 416 907
e 416 909
e 416 912
e 416 918
e 416 919
e 416 932
e 416 945
e 416 965
e 416 994
e 417 418
e 417 435
e 417 438
e 417 443
e 417 448
e 417 451
e 417 465
e 417 474
e 417 483
e 417 502
e 417 509
e 417 521
e 417 523
e 417 539
e 417 543
e 417 547
e 417 557
e 417 561
e 417 572
e 417 635
e 417 652
e 417 688
e 417 700
e 417 710
e 417 720
e 417 728
e 417 741
e 417 767
e 417 787
e 417 790
e 417 796
e 417 805
e 417 821
e 417 822
e 417 832
e 417 841
e 417 842
e 417 847
e 417 848
e 417 851
e 417 852
e 417 864
e 417 873
e 417 877
e 417 885
e 417 898
e 417 907
e 417 909
e 417 911
e 417 918
e 417 920
e 417 923
e 417 936
e 417 939
e 417 945
e 417 951
e 417 954
e 417 966
e 417 967
e 417 979
e 417 985
e 418 424
e 418 441
e 418 445
e 418 447
e 418 448
e 418 455
e 418 457
e 418 462
e 418 477
e 418 485
e 418 497
e 418 505
e 418 508
e 418 510
e 418 517
e 418 522
e 418 538
e 418 558
e 418 561
e 418 576
e 418 585
e 418 590
e 418 607
e 418 617
e 418 621
e 418 622
e 418 631
e 418 636
e 418 662
e 418 666
e 418 706
e 418 712
e 418 721
e 418 736
e 418 744
e 418 781
e 418 804
e 418 813
e 418 826
e 418 860
e 418 868
e 418 888
e 418 902
e 418 907
e 418 909
e 418 929
e 418 931
e 418 955
e 418 969
e 418 972
e 418 980
e 418 981
e 418 982
e 419 436
e 419 455
e 419 458
e 419 461
e 419 477
e 419 500
e 419 513
e 419 524
e 419 526
e 419 530
e 419 543
e 419 554
e 419 558
e 419 563
e 419 577
e 419 591
e 419 592
e 419 594
e 419 607
e 419 609
e 419 627
e 419 632
e 419 634
e 419 638
e 419 639
e 419 666
e 419 672
e 419 674
e 419 677
e 419 690
e 419 693
e 419 694
e 419 695
e 419 705
e 419 736
e 419 756
e 419 791
e 419 803
e 419 806
e 419 834
e 419 843
e 419 850
e 419 852
e 419 872
e 419 893
e 419 897
e 419 916
e 419 919
e 419 925
e 419 948
e 419 949
e 419 959
e 419 972
e 419 975
e 419 981
e 419 983
e 419 999
e 420 423
e 420 446
e 420 482
e 420 506
e 420 512
e 420 538
e 420 550
e 420 563
e 420 578
e 420 580
e 420 584
e 420 638
e 420 642
e 420 654
e 420 656
e 420 657
e 420 660
e 420 669
e 420 672
e 420 697
e 420 738
e 420 744
e 420 747
e 420 769
e 420 783
e 420 793
e 420 811
e 420 813
e 420 820
e 420 821
e 420 845
e 420 858
e 420 873
e 420 879
e 420 885
e 420 889
e 420 895
e 420 897
e 420 903
e 420 917
e 420 918
e 420 920
e 420 938
e 420 965
e 420 966
e 420 985
e 421 429
e 421 442
e 421 444
e 421 460
e 421 480
e 421 489
e 421 492
e 421 494
e 421 499
e 421 527
e 421 531
e 421 532
e 421 550
e 421 567
e 421 571
e 421 578
e 421 584
e 421 611
e 421 612
e 421 617
e 421 628
e 421 645
e 421 654
e 421 664
e 421 675
e 421 684
e 421 685
e 421 687
e 421 689
e 421 707
e 421 714
e 421 725
e 421 736
e 421 738
e 421 744
e 421 745
e 421 746
e 421 750
e 421 754
e 421 757
e 421 764
e 421 807
e 421 815
e 421 817
e 421 823
e 421 830
e 421 839
e 421 842
e 421 850
e 421 853
e 421 871
e 421 890
e 421 923
e 421 933
e 421 937
e 421 947
e 421 950
e 421 953
e 421 964
e 421 975
e 421 980
e 421 985
e 422 426
e 422 444
e 422 457
e 422 460
e 422 475
e 422 482
e 422 493
e 422 494
e 422 498
e 422 503
e 422 515
e 422 517
e 422 520
e 422 535
e 422 537
e 422 539
e 422 542
e 422 550
e 422 552
e 422 560
e 422 570
e 422 588
e 422 589
e 422 598
e 422 602
e 422 649
e 422 659
e 422 667
e 422 690
e 422 695
e 422 703
e 422 722
e 422 729
e 422 735
e 422 739
e 422 744
e 422 749
e 422 760
e 422 762
e 422 763
e 422 768
e 422 789
e 422 821
e 422 833
e 422 838
e 422 870
e 422 875
e 422 880
e 422 899
e 422 902
e 422 916
e 422 944
e 422 962
e 422 987
e 422 991
e 422 996
e 422 999
e 423 431
e 423 433
e 423 442
e 423 443
e 423 444
e 423 446
e 423 457
e 423 460
e 423 462
e 423 514
e 423 519
e 423 532
e 423 546
e 423 550
e 423 560
e 423 570
e 423 582
e 423 599
e 423 608
e 423 615
e 423 625
e 423 643
e 423 650
e 423 652
e 423 661
e 423 672
e 423 680
e 423 685
e 423 727
e 423 730
e 423 735
e 423 738
e 423 745
e 423 763
e 423 779
e 423 784
e 423 788
e 423 790
e 423 791
e 423 799
e 423 815
e 423 816
e 423 822
e 423 844
e 423 851
e 423 855
e 423 880
e 423 903
e 423 910
e 423 924
e 423 933
e 423 940
e 423 943
e 423 952
e 423 955
e 423 959
e 423 995
e 423 999
e 424 431
e 424 443
e 424 450
e 424 456
e 424 471
e 424 484
e 424 488
e 424 492
e 424 497
e 424 500
e 424 523
e 424 526
e 424 532
e 424 547
e 424 552
e 424 563
e 424 570
e 424 572
e 424 573
e 424 576
e 424 585
e 424 590
e 424 614
e 424 634
e 424 674
e 424 703
e 424 704
e 424 706
e 424 714
e 424 733
e 424 753
e 424 754
e 424 755
e 424 757
e 424 777
e 424 790
e 424 803
e 424 805
e 424 809
e 424 827
e 424 842
e 424 843
e 424 855
e 424 861
e 424 871
e 424 886
e 424 890
e 424 914
e 424 923
e 424 938
e 424 941
e 424 943
e 424 949
e 424 975
e 424 985
e 424 991
e 424 995
e 424 1000
e 425 430
e 425 437
e 425 447
e 425 456
e 425 471
e 425 483
e 425 496
e 425 502
e 425 504
e 425 505
e 425 507
e 425 524
e 425 526
e 425 534
e 425 553
e 425 564
e 425 569
e 425 570
e 425 585
e 425 598
e 425 604
e 425 607
e 425 612
e 425 621
e 425 657
e 425 680
e 425 689
e 425 694
e 425 700
e 425 733
e 425 741
e 425 744
e 425 761
e 425 762
e 425 774
e 425 795
e 425 796
e 425 799
e 425 802
e 425 828
e 425 831
e 425 836
e 425 839
e 425 845
e 425 858
e 425 862
e 425 903
e 425 907
e 425 914
e 425 935
e 425 952
e 425 972
e 425 987
e 425 996
e 426 427
e 426 433
e 426 435
e 426 460
e 426 467
e 426 489
e 426 491
e 426 519
e 426 534
e 426 536
e 426 573
e 426 577
e 426 583
e 426 591
e 426 599
e 426 603
e 426 624
e 426 663
e 426 670
e 426 681
e 426 698
e 426 706
e 426 708
e 426 710
e 426 712
e 426 740
e 426 756
e 426 771
e 426 777
e 426 795
e 426 798
e 426 809
e 426 812
e 426 821
e 426 834
e 426 840
e 426 856
e 426 882
e 426 886
e 426 910
e 426 922
e 426 950
e 426 982
e 426 983
e 426 992
e 427 433
e 427 450
e 427 467
e 427 499
e 427 500
e 427 527
e 427 570
e 427 595
e 427 607
e 427 608
e 427 619
e 427 637
e 427 645
e 427 646
e 427 647
e 427 660
e 427 683
e 427 699
e 427 704
e 427 705
e 427 707
e 427 711
e 427 726
e 427 735
e 427 737
e 427 741
e 427 743
e 427 745
e 427 749
e 427 784
e 427 789
e 427 790
e 427 792
e 427 800
e 427 828
e 427 829
e 427 835
e 427 846
e 427 847
e 427 870
e 427 898
e 427 912
e 427 915
e 427 924
e 427 929
e 427 939
e 427 940
e 427 950
e 427 954
e 427 967
e 427 981
e 427 983
e 427 992
e 428 436
e 428 446
e 428 458
e 428 468
e 428 491
e 428 493
e 428 502
e 428 505
e 428 512
e 428 527
e 428 535
e 428 545
e 428 556
e 428 558
e 428 567
e 428 603
e 428 613
e 428 614
e 428 619
e 428 626
e 428 638
e 428 639
e 428 642
e 428 645
e 428 656
e 428 665
e 428 676
e 428 692
e 428 694
e 428 701
e 428 706
e 428 714
e 428 723
e 428 733
e 428 740
e 428 744
e 428 749
e 428 756
e 428 773
e 428 775
e 428 782
e 428 803
e 428 812
e 428 813
e 428 826
e 428 846
e 428 851
e 428 855
e 428 873
e 428 876
e 428 889
e 428 898
e 428 910
e 428 921
e 428 924
e 428 928
e 428 960
e 428 967
e 428 979
e 428 986
e 428 996
e 429 455
e 429 456
e 429 464
e 429 485
e 429 501
e 429 521
e 429 522
e 429 557
e 429 560
e 429 564
e 429 584
e 429 604
e 429 616
e 429 632
e 429 635
e 429 656
e 429 657
e 429 659
e 429 696
e 429 704
e 429 718
e 429 724
e 429 726
e 429 737
e 429 742
e 429 750
e 429 753
e 429 761
e 429 771
e 429 780
e 429 785
e 429 807
e 429 813
e 429 828
e 429 830
e 429 831
e 429 833
e 429 841
e 429 847
e 429 852
e 429 860
e 429 892
e 429 895
e 429 909
e 429 914
e 429 967
e 429 971
e 429 974
e 429 976
e 430 442
e 430 450
e 430 454
e 430 463
e 430 467
e 430 469
e 430 470
e 430 502
e 430 503
e 430 508
e 430 527
e 430 530
e 430 546
e 430 549
e 430 553
e 430 565
e 430 569
e 430 573
e 430 622
e 430 629
e 430 637
e 430 648
e 430 665
e 430 687
e 430 697
e 430 704
e 430 708
e 430 709
e 430 735
e 430 755
e 430 775
e 430 779
e 430 782
e 430 788
e 430 792
e 430 799
e 430 804
e 430 805
e 430 812
e 430 830
e 430 835
e 430 878
e 430 891
e 430 895
e 430 898
e 430 903
e 430 919
e 430 934
e 430 946
e 430 947
e 430 971
e 430 972
e 430 977
e 430 981
e 430 982
e 430 983
e 430 992
e 430 1000
e 431 463
e 431 466
e 431 476
e 431 494
e 431 498
e 431 501
e 431 502
e 431 507
e 431 510
e 431 511
e 431 523
e 431 525
e 431 536
e 431 544
e 431 549
e 431 568
e 431 574
e 431 577
e 431 591
e 431 593
e 431 606
e 431 613
e 431 622
e 431 628
e 431 645
e 431 675
e 431 682
e 431 693
e 431 701
e 431 713
e 431 764
e 431 775
e 431 783
e 431 797
e 431 811
e 431 815
e 431 823
e 431 829
e 431 843
e 431 849
e 431 851
e 431 852
e 431 856
e 431 879
e 431 885
e 431 905
e 431 909
e 431 911
e 431 917
e 431 923
e 431 927
e 431 933
e 431 949
e 431 951
e 431 967
e 431 985
e 431 989
e 432 435
e 432 437
e 432 438
e 432 469
e 432 486
e 432 488
e 432 505
e 432 526
e 432 548
e 432 567
e 432 578
e 432 581
e 432 582
e 432 586
e 432 587
e 432 590
e 432 612
e 432 620
e 432 637
e 432 641
e 432 649
e 432 656
e 432 673
e 432 679
e 432 689
e 432 691
e 432 702
e 432 708
e 432 709
e 432 711
e 432 713
e 432 714
e 432 729
e 432 732
e 432 735
e 432 736
e 432 739
e 432 744
e 432 753
e 432 781
e 432 783
e 432 786
e 432 809
e 432 814
e 432 816
e 432 829
e 432 862
e 432 864
e 432 877
e 432 891
e 432 896
e 432 909
e 432 913
e 432 916
e 432 978
e 432 987
e 432 989
e 433 458
e 433 485
e 433 486
e 433 490
e 433 525
e 433 527
e 433 539
e 433 579
e 433 590
e 433 595
e 433 600
e 433 603
e 433 623
e 433 634
e 433 640
e 433 649
e 433 656
e 433 658
e 433 662
e 433 683
e 433 684
e 433 708
e 433 746
e 433 775
e 433 817
e 433 822
e 433 832
e 433 833
e 433 849
e 433 852
e 433 858
e 433 863
e 433 886
e 433 907
e 433 910
e 433 911
e 433 912
e 433 924
e 433 927
e 433 940
e 433 950
e 433 961
e 433 971
e 433 976
e 433 994
e 433 995
e 433 997
e 433 999
e 434 475
e 434 484
e 434 492
e 434 493
e 434 501
e 434 514
e 434 517
e 434 518
e 434 551
e 434 553
e 434 579
e 434 592
e 434 609
e 434 633
e 434 634
e 434 635
e 434 637
e 434 638
e 434 659
e 434 661
e 434 668
e 434 672
e 434 681
e 434 687
e 434 708
e 434 725
e 434 730
e 434 742
e 434 743
e 434 760
e 434 763
e 434 765
e 434 769
e 434 774
e 434 775
e 434 788
e 434 792
e 434 819
e 434 841
e 434 851
e 434 860
e 434 874
e 434 884
e 434 894
e 434 895
e 434 927
e 434 946
e 434 954
e 434 956
e 434 958
e 434 975
e 434 979
e 434 982
e 434 993
e 434 999
e 435 443
e 435 447
e 435 475
e 435 477
e 435 487
e 435 489
e 435 493
e 435 508
e 435 511
e 435 520
e 435 531
e 435 544
e 435 550
e 435 584
e 435 591
e 435 593
e 435 597
e 435 609
e 435 624
e 435 633
e 435 642
e 435 648
e 435 659
e 435 678
e 435 689
e 435 697
e 435 709
e 435 730
e 435 747
e 435 748
e 435 750
e 435 759
e 435 761
e 435 764
e 435 771
e 435 773
e 435 779
e 435 782
e 435 794
e 435 801
e 435 803
e 435 808
e 435 810
e 435 820
e 435 824
e 435 851
e 435 867
e 435 868
e 435 870
e 435 886
e 435 888
e 435 890
e 435 893
e 435 904
e 435 915
e 435 934
e 435 941
e 435 950
e 435 955
e 435 961
e 435 963
e 435 966
e 435 1000
e 436 439
e 436 444
e 436 446
e 436 468
e 436 475
e 436 481
e 436 482
e 436 483
e 436 497
e 436 517
e 436 532
e 436 538
e 436 543
e 436 545
e 436 550
e 436 579
e 436 592
e 436 621
e 436 626
e 436 665
e 436 668
e 436 677
e 436 693
e 436 694
e 436 712
e 436 724
e 436 732
e 436 753
e 436 756
e 436 768
e 436 779
e 436 789
e 436 791
e 436 818
e 436 819
e 436 838
e 436 840
e 436 846
e 436 858
e 436 868
e 436 870
e 436 876
e 436 881
e 436 892
e 436 894
e 436 919
e 436 935
e 436 936
e 436 941
e 436 944
e 436 946
e 436 967
e 436 969
e 436 987
e 436 997
e 436 999
e 437 445
e 437 462
e 437 470
e 437 472
e 437 473
e 437 476
e 437 492
e 437 497
e 437 507
e 437 511
e 437 555
e 437 563
e 437 565
e 437 572
e 437 581
e 437 590
e 437 613
e 437 641
e 437 651
e 437 660
e 437 699
e 437 709
e 437 750
e 437 766
e 437 772
e 437 773
e 437 774
e 437 776
e 437 788
e 437 803
e 437 819
e 437 830
e 437 873
e 437 880
e 437 884
e 437 893
e 437 926
e 437 941
e 437 943
e 437 955
e 437 967
e 437 969
e 437 974
e 437 981
e 438 440
e 438 446
e 438 448
e 438 467
e 438 469
e 438 482
e 438 483
e 438 490
e 438 494
e 438 495
e 438 498
e 438 502
e 438 504
e 438 533
e 438 537
e 438 541
e 438 555
e 438 557
e 438 568
e 438 579
e 438 598
e 438 599
e 438 608
e 438 609
e 438 619
e 438 623
e 438 658
e 438 668
e 438 670
e 438 689
e 438 695
e 438 699
e 438 707
e 438 719
e 438 734
e 438 771
e 438 785
e 438 787
e 438 799
e 438 814
e 438 840
e 438 844
e 438 853
e 438 859
e 438 866
e 438 875
e 438 877
e 438 908
e 438 911
e 438 916
e 438 934
e 438 943
e 438 949
e 438 980
e 438 988
e 439 459
e 439 461
e 439 482
e 439 502
e 439 506
e 439 541
e 439 552
e 439 554
e 439 555
e 439 562
e 439 571
e 439 581
e 439 603
e 439 617
e 439 639
e 439 643
e 439 669
e 439 672
e 439 673
e 439 674
e 439 675
e 439 684
e 439 692
e 439 719
e 439 722
e 439 734
e 439 739
e 439 746
e 439 747
e 439 755
e 439 764
e 439 792
e 439 794
e 439 800
e 439 816
e 439 824
e 439 847
e 439 856
e 439 862
e 439 868
e 439 871
e 439 872
e 439 897
e 439 907
e 439 945
e 439 949
e 439 952
e 439 962
e 439 963
e 439 981
e 440 452
e 440 476
e 440 485
e 440 487
e 440 496
e 440 529
e 440 544
e 440 574
e 440 579
e 440 584
e 440 586
e 440 587
e 440 589
e 440 594
e 440 598
e 440 611
e 440 612
e 440 624
e 440 646
e 440 662
e 440 687
e 440 691
e 440 697
e 440 698
e 440 699
e 440 716
e 440 718
e 440 719
e 440 756
e 440 766
e 440 767
e 440 769
e 440 791
e 440 817
e 440 821
e 440 822
e 440 825
e 440 842
e 440 852
e 440 859
e 440 861
e 440 865
e 440 866
e 440 867
e 440 877
e 440 891
e 440 896
e 440 902
e 440 921
e 440 948
e 440 950
e 440 951
e 440 961
e 440 970
e 440 975
e 440 976
e 440 977
e 440 979
e 440 983
e 440 990
e 440 992
e 441 445
e 441 456
e 441 480
e 441 488
e 441 512
e 441 531
e 441 545
e 441 566
e 441 567
e 441 571
e 441 572
e 441 591
e 441 623
e 441 628
e 441 642
e 441 648
e 441 683
e 441 697
e 441 699
e 441 701
e 441 711
e 441 723
e 441 724
e 441 730
e 441 737
e 441 739
e 441 743
e 441 763
e 441 770
e 441 772
e 441 777
e 441 779
e 441 804
e 441 809
e 441 820
e 441 830
e 441 831
e 441 845
e 441 847
e 441 849
e 441 867
e 441 874
e 441 878
e 441 898
e 441 901
e 441 904
e 441 907
e 441 953
e 441 959
e 441 984
e 441 988
e 441 993
e 441 998
e 442 452
e 442 455
e 442 465
e 442 490
e 442 493
e 442 505
e 442 508
e 442 527
e 442 533
e 442 535
e 442 543
e 442 556
e 442 557
e 442 559
e 442 583
e 442 584
e 442 605
e 442 618
e 442 633
e 442 637
e 442 642
e 442 651
e 442 665
e 442 671
e 442 674
e 442 691
e 442 698
e 442 702
e 442 706
e 442 708
e 442 711
e 442 714
e 442 720
e 442 724
e 442 733
e 442 740
e 442 797
e 442 800
e 442 806
e 442 813
e 442 829
e 442 832
e 442 842
e 442 843
e 442 856
e 442 861
e 442 879
e 442 880
e 442 893
e 442 897
e 442 899
e 442 903
e 442 909
e 442 919
e 442 921
e 442 922
e 442 939
e 442 945
e 442 955
e 442 970
e 442 982
e 443 474
e 443 483
e 443 494
e 443 499
e 443 505
e 443 506
e 443 508
e 443 511
e 443 525
e 443 530
e 443 542
e 443 554
e 443 560
e 443 591
e 443 595
e 443 600
e 443 612
e 443 625
e 443 637
e 443 641
e 443 644
e 443 650
e 443 670
e 443 676
e 443 717
e 443 731
e 443 744
e 443 750
e 443 763
e 443 792
e 443 796
e 443 800
e 443 801
e 443 839
e 443 853
e 443 863
e 443 864
e 443 875
e 443 877
e 443 879
e 443 880
e 443 887
e 443 907
e 443 919
e 443 929
e 443 930
e 443 934
e 443 939
e 443 949
e 443 956
e 443 969
e 443 991
e 444 451
e 444 456
e 444 458
e 444 464
e 444 469
e 444 478
e 444 479
e 444 491
e 444 496
e 444 505
e 444 507
e 444 524
e 444 532
e 444 535
e 444 538
e 444 547
e 444 551
e 444 554
e 444 586
e 444 587
e 444 617
e 444 628
e 444 633
e 444 638
e 444 645
e 444 650
e 444 663
e 444 664
e 444 684
e 444 689
e 444 690
e 444 701
e 444 719
e 444 727
e 444 728
e 444 733
e 444 741
e 444 749
e 444 752
e 444 753
e 444 755
e 444 775
e 444 805
e 444 843
e 444 847
e 444 856
e 444 862
e 444 877
e 444 878
e 444 884
e 444 893
e 444 895
e 444 898
e 444 903
e 444 921
e 444 925
e 444 935
e 444 956
e 444 958
e 444 970
e 444 977
e 444 991
e 444 994
e 445 452
e 445 461
e 445 463
e 445 464
e 445 470
e 445 477
e 445 501
e 445 505
e 445 513
e 445 519
e 445 526
e 445 545
e 445 554
e 445 573
e 445 581
e 445 589
e 445 592
e 445 594
e 445 602
e 445 607
e 445 610
e 445 613
e 445 617
e 445 621
e 445 629
e 445 644
e 445 657
e 445 670
e 445 672
e 445 711
e 445 718
e 445 753
e 445 762
e 445 763
e 445 774
e 445 779
e 445 783
e 445 791
e 445 809
e 445 823
e 445 835
e 445 852
e 445 856
e 445 857
e 445 860
e 445 861
e 445 867
e 445 870
e 445 871
e 445 877
e 445 879
e 445 893
e 445 898
e 445 900
e 445 905
e 445 912
e 445 924
e 445 944
e 445 974
e 445 977
e 445 980
e 445 986
e 445 995
e 445 996
e 445 997
e 446 453
e 446 455
e 446 464
e 446 466
e 446 472
e 446 479
e 446 487
e 446 490
e 446 514
e 446 525
e 446 539
e 446 546
e 446 554
e 446 558
e 446 572
e 446 583
e 446 585
e 446 589
e 446 597
e 446 600
e 446 609
e 446 610
e 446 615
e 446 622
e 446 628
e 446 637
e 446 647
e 446 651
e 446 655
e 446 680
e 446 687
e 446 702
e 446 706
e 446 707
e 446 708
e 446 710
e 446 716
e 446 726
e 446 745
e 446 759
e 446 765
e 446 790
e 446 796
e 446 811
e 446 813
e 446 817
e 446 856
e 446 889
e 446 903
e 446 907
e 446 911
e 446 921
e 446 945
e 446 954
e 446 972
e 446 977
e 446 980
e 446 991
e 446 993
e 447 457
e 447 468
e 447 474
e 447 475
e 447 486
e 447 488
e 447 490
e 447 496
e 447 497
e 447 509
e 447 514
e 447 516
e 447 539
e 447 541
e 447 547
e 447 552
e 447 554
e 447 556
e 447 560
e 447 604
e 447 610
e 447 617
e 447 632
e 447 636
e 447 639
e 447 644
e 447 658
e 447 672
e 447 680
e 447 691
e 447 694
e 447 707
e 447 715
e 447 724
e 447 737
e 447 740
e 447 747
e 447 768
e 447 771
e 447 780
e 447 800
e 447 804
e 447 806
e 447 807
e 447 818
e 447 820
e 447 824
e 447 825
e 447 826
e 447 828
e 447 832
e 447 836
e 447 849
e 447 868
e 447 877
e 447 880
e 447 881
e 447 882
e 447 884
e 447 912
e 447 920
e 447 932
e 447 961
e 447 969
e 447 983
e 447 997
e 448 452
e 448 455
e 448 461
e 448 466
e 448 470
e 448 478
e 448 481
e 448 488
e 448 513
e 448 515
e 448 516
e 448 542
e 448 558
e 448 568
e 448 586
e 448 592
e 448 597
e 448 600
e 448 617
e 448 620
e 448 621
e 448 647
e 448 654
e 448 680
e 448 683
e 448 685
e 448 715
e 448 716
e 448 724
e 448 727
e 448 766
e 448 767
e 448 782
e 448 785
e 448 797
e 448 830
e 448 836
e 448 843
e 448 844
e 448 868
e 448 907
e 448 927
e 448 928
e 448 955
e 448 961
e 448 967
e 448 981
e 448 985
e 449 451
e 449 454
e 449 501
e 449 521
e 449 523
e 449 544
e 449 551
e 449 558
e 449 567
e 449 589
e 449 606
e 449 613
e 449 618
e 449 622
e 449 625
e 449 636
e 449 648
e 449 660
e 449 662
e 449 664
e 449 672
e 449 673
e 449 674
e 449 684
e 449 685
e 449 706
e 449 707
e 449 718
e 449 721
e 449 726
e 449 729
e 449 762
e 449 766
e 449 774
e 449 784
e 449 788
e 449 795
e 449 811
e 449 832
e 449 850
e 449 861
e 449 870
e 449 871
e 449 878
e 449 879
e 449 896
e 449 899
e 449 900
e 449 906
e 449 934
e 449 945
e 449 949
e 449 969
e 449 985
e 450 456
e 450 459
e 450 467
e 450 481
e 450 483
e 450 489
e 450 490
e 450 499
e 450 505
e 450 514
e 450 516
e 450 528
e 450 540
e 450 542
e 450 591
e 450 611
e 450 616
e 450 627
e 450 630
e 450 633
e 450 634
e 450 640
e 450 641
e 450 645
e 450 649
e 450 665
e 450 666
e 450 682
e 450 696
e 450 715
e 450 718
e 450 723
e 450 725
e 450 748
e 450 751
e 450 760
e 450 765
e 450 777
e 450 796
e 450 827
e 450 828
e 450 829
e 450 831
e 450 839
e 450 846
e 450 850
e 450 877
e 450 893
e 450 902
e 450 920
e 450 925
e 450 930
e 450 935
e 450 938
e 450 948
e 450 952
e 450 957
e 450 959
e 450 963
e 450 969
e 450 973
e 450 974
e 450 986
e 450 988
e 450 996
e 451 462
e 451 468
e 451 478
e 451 493
e 451 495
e 451 513
e 451 538
e 451 542
e 451 545
e 451 546
e 451 567
e 451 569
e 451 577
e 451 580
e 451 582
e 451 600
e 451 614
e 451 659
e 451 662
e 451 668
e 451 670
e 451 673
e 451 682
e 451 692
e 451 704
e 451 710
e 451 713
e 451 715
e 451 724
e 451 727
e 451 735
e 451 744
e 451 777
e 451 793
e 451 799
e 451 846
e 451 853
e 451 858
e 451 864
e 451 878
e 451 888
e 451 892
e 451 901
e 451 905
e 451 912
e 451 913
e 451 922
e 451 936
e 451 940
e 451 946
e 451 949
e 452 457
e 452 482
e 452 489
e 452 495
e 452 507
e 452 513
e 452 539
e 452 553
e 452 575
e 452 581
e 452 598
e 452 607
e 452 618
e 452 622
e 452 628
e 452 654
e 452 673
e 452 677
e 452 688
e 452 716
e 452 717
e 452 734
e 452 758
e 452 765
e 452 773
e 452 779
e 452 785
e 452 790
e 452 798
e 452 808
e 452 818
e 452 822
e 452 853
e 452 862
e 452 863
e 452 869
e 452 870
e 452 873
e 452 888
e 452 892
e 452 906
e 452 909
e 452 951
e 452 964
e 452 966
e 452 971
e 452 973
e 452 975
e 452 997
e 453 457
e 453 494
e 453 505
e 453 516
e 453 544
e 453 565
e 453 566
e 453 573
e 453 579
e 453 584
e 453 587
e 453 596
e 453 606
e 453 618
e 453 620
e 453 625
e 453 631
e 453 634
e 453 645
e 453 646
e 453 652
e 453 663
e 453 669
e 453 676
e 453 699
e 453 701
e 453 703
e 453 707
e 453 713
e 453 725
e 453 730
e 453 752
e 453 766
e 453 774
e 453 775
e 453 777
e 453 781
e 453 788
e 453 793
e 453 797
e 453 798
e 453 810
e 453 823
e 453 829
e 453 837
e 453 851
e 453 876
e 453 909
e 453 914
e 453 930
e 453 931
e 453 936
e 453 944
e 453 958
e 453 966
e 453 969
e 453 979
e 453 982
e 453 992
e 454 463
e 454 465
e 454 469
e 454 472
e 454 475
e 454 493
e 454 496
e 454 505
e 454 534
e 454 539
e 454 559
e 454 563
e 454 566
e 454 589
e 454 597
e 454 603
e 454 604
e 454 605
e 454 608
e 454 615
e 454 639
e 454 644
e 454 652
e 454 657
e 454 679
e 454 701
e 454 713
e 454 721
e 454 735
e 454 746
e 454 750
e 454 757
e 454 765
e 454 788
e 454 813
e 454 816
e 454 821
e 454 861
e 454 893
e 454 894
e 454 900
e 454 919
e 454 922
e 454 943
e 454 946
e 454 949
e 454 958
e 454 969
e 454 990
e 454 998
e 455 460
e 455 481
e 455 482
e 455 484
e 455 488
e 455 489
e 455 493
e 455 495
e 455 499
e 455 502
e 455 516
e 455 518
e 455 520
e 455 529
e 455 536
e 455 551
e 455 559
e 455 562
e 455 569
e 455 584
e 455 591
e 455 623
e 455 644
e 455 645
e 455 646
e 455 650
e 455 676
e 455 695
e 455 701
e 455 704
e 455 709
e 455 717
e 455 719
e 455 725
e 455 731
e 455 740
e 455 744
e 455 754
e 455 758
e 455 759
e 455 767
e 455 792
e 455 796
e 455 820
e 455 838
e 455 852
e 455 861
e 455 865
e 455 872
e 455 880
e 455 889
e 455 933
e 455 937
e 455 939
e 455 942
e 455 945
e 455 951
e 455 960
e 455 966
e 455 971
e 455 983
e 456 458
e 456 461
e 456 470
e 456 471
e 456 493
e 456 530
e 456 552
e 456 553
e 456 559
e 456 592
e 456 599
e 456 608
e 456 636
e 456 638
e 456 639
e 456 643
e 456 654
e 456 661
e 456 668
e 456 670
e 456 672
e 456 679
e 456 696
e 456 699
e 456 702
e 456 712
e 456 721
e 456 737
e 456 748
e 456 760
e 456 771
e 456 773
e 456 801
e 456 809
e 456 813
e 456 820
e 456 836
e 456 837
e 456 839
e 456 855
e 456 861
e 456 869
e 456 887
e 456 893
e 456 894
e 456 902
e 456 915
e 456 921
e 456 925
e 456 928
e 456 951
e 456 965
e 456 975
e 456 981
e 456 982
e 456 985
e 456 987
e 456 990
e 456 994
e 457 475
e 457 492
e 457 494
e 457 496
e 457 506
e 457 511
e 457 517
e 457 528
e 457 530
e 457 551
e 457 579
e 457 585
e 457 602
e 457 608
e 457 610
e 457 618
e 457 624
e 457 643
e 457 646
e 457 650
e 457 658
e 457 680
e 457 684
e 457 702
e 457 704
e 457 718
e 457 719
e 457 734
e 457 740
e 457 741
e 457 743
e 457 748
e 457 775
e 457 781
e 457 802
e 457 808
e 457 834
e 457 860
e 457 891
e 457 902
e 457 903
e 457 925
e 457 942
e 457 945
e 457 959
e 457 968
e 457 987
e 457 992
e 457 994
e 457 995
e 458 460
e 458 484
e 458 491
e 458 494
e 458 508
e 458 524
e 458 526
e 458 528
e 458 541
e 458 547
e 458 550
e 458 557
e 458 583
e 458 585
e 458 593
e 458 609
e 458 613
e 458 619
e 458 621
e 458 639
e 458 642
e 458 646
e 458 667
e 458 678
e 458 703
e 458 729
e 458 747
e 458 753
e 458 769
e 458 777
e 458 811
e 458 817
e 458 818
e 458 824
e 458 825
e 458 834
e 458 835
e 458 839
e 458 842
e 458 846
e 458 850
e 458 851
e 458 869
e 458 879
e 458 880
e 458 888
e 458 889
e 458 891
e 458 899
e 458 907
e 458 918
e 458 920
e 458 922
e 458 926
e 458 933
e 458 936
e 458 940
e 458 948
e 458 949
e 458 956
e 458 958
e 458 968
e 458 985
e 458 987
e 459 470
e 459 474
e 459 513
e 459 523
e 459 525
e 459 587
e 459 591
e 459 615
e 459 616
e 459 617
e 459 622
e 459 636
e 459 642
e 459 645
e 459 648
e 459 651
e 459 670
e 459 672
e 459 695
e 459 720
e 459 733
e 459 737
e 459 742
e 459 745
e 459 751
e 459 755
e 459 761
e 459 804
e 459 805
e 459 819
e 459 843
e 459 870
e 459 872
e 459 889
e 459 893
e 459 898
e 459 901
e 459 906
e 459 912
e 459 919
e 459 923
e 459 938
e 459 943
e 459 945
e 459 955
e 459 958
e 459 973
e 459 974
e 459 985
e 459 988
e 460 466
e 460 468
e 460 475
e 460 493
e 460 497
e 460 504
e 460 521
e 460 522
e 460 526
e 460 527
e 460 530
e 460 534
e 460 538
e 460 541
e 460 543
e 460 545
e 460 561
e 460 563
e 460 573
e 460 577
e 460 585
e 460 593
e 460 609
e 460 610
e 460 626
e 460 637
e 460 645
e 460 646
e 460 652
e 460 654
e 460 665
e 460 677
e 460 681
e 460 695
e 460 713
e 460 717
e 460 726
e 460 730
e 460 737
e 460 747
e 460 773
e 460 774
e 460 804
e 460 816
e 460 818
e 460 833
e 460 847
e 460 891
e 460 894
e 460 906
e 460 910
e 460 938
e 460 948
e 460 950
e 460 956
e 460 963
e 460 975
e 460 988
e 460 990
e 460 994
e 461 480
e 461 482
e 461 483
e 461 497
e 461 503
e 461 505
e 461 512
e 461 539
e 461 545
e 461 552
e 461 587
e 461 591
e 461 607
e 461 612
e 461 617
e 461 648
e 461 655
e 461 672
e 461 683
e 461 689
e 461 700
e 461 704
e 461 716
e 461 726
e 461 732
e 461 746
e 461 753
e 461 762
e 461 812
e 461 814
e 461 818
e 461 829
e 461 859
e 461 861
e 461 863
e 461 876
e 461 912
e 461 928
e 461 955
e 461 956
e 461 963
e 461 982
e 461 983
e 462 477
e 462 483
e 462 486
e 462 487
e 462 517
e 462 523
e 462 527
e 462 540
e 462 552
e 462 553
e 462 554
e 462 557
e 462 566
e 462 615
e 462 618
e 462 619
e 462 632
e 462 636
e 462 639
e 462 675
e 462 693
e 462 700
e 462 710
e 462 713
e 462 721
e 462 727
e 462 729
e 462 735
e 462 760
e 462 781
e 462 799
e 462 812
e 462 813
e 462 825
e 462 828
e 462 831
e 462 841
e 462 845
e 462 853
e 462 886
e 462 901
e 462 906
e 462 911
e 462 915
e 462 925
e 462 926
e 462 934
e 462 935
e 462 945
e 462 967
e 462 972
e 463 466
e 463 470
e 463 487
e 463 488
e 463 494
e 463 496
e 463 500
e 463 501
e 463 511
e 463 512
e 463 520
e 463 526
e 463 529
e 463 534
e 463 546
e 463 549
e 463 552
e 463 577
e 463 578
e 463 589
e 463 592
e 463 617
e 463 618
e 463 626
e 463 650
e 463 660
e 463 678
e 463 682
e 463 693
e 463 699
e 463 706
e 463 716
e 463 724
e 463 726
e 463 730
e 463 743
e 463 766
e 463 769
e 463 772
e 463 785
e 463 788
e 463 801
e 463 808
e 463 819
e 463 835
e 463 838
e 463 844
e 463 848
e 463 875
e 463 888
e 463 892
e 463 916
e 463 917
e 463 919
e 463 929
e 463 934
e 463 963
e 463 975
e 463 978
e 464 481
e 464 489
e 464 497
e 464 499
e 464 501
e 464 512
e 464 519
e 464 525
e 464 530
e 464 543
e 464 545
e 464 547
e 464 548
e 464 553
e 464 554
e 464 557
e 464 595
e 464 598
e 464 622
e 464 629
e 464 633
e 464 635
e 464 639
e 464 649
e 464 650
e 464 654
e 464 663
e 464 693
e 464 694
e 464 717
e 464 719
e 464 720
e 464 723
e 464 731
e 464 747
e 464 751
e 464 752
e 464 755
e 464 758
e 464 759
e 464 760
e 464 774
e 464 784
e 464 797
e 464 799
e 464 815
e 464 816
e 464 831
e 464 844
e 464 847
e 464 852
e 464 862
e 464 873
e 464 891
e 464 896
e 464 901
e 464 908
e 464 909
e 464 927
e 464 929
e 464 934
e 464 935
e 464 939
e 464 943
e 464 950
e 464 953
e 464 958
e 464 982
e 464 987
e 464 996
e 465 483
e 465 486
e 465 495
e 465 502
e 465 510
e 465 530
e 465 532
e 465 538
e 465 554
e 465 556
e 465 561
e 465 566
e 465 581
e 465 582
e 465 589
e 465 593
e 465 598
e 465 603
e 465 621
e 465 623
e 465 650
e 465 661
e 465 664
e 465 673
e 465 686
e 465 708
e 465 712
e 465 725
e 465 737
e 465 740
e 465 744
e 465 747
e 465 750
e 465 756
e 465 782
e 465 786
e 465 814
e 465 815
e 465 837
e 465 840
e 465 844
e 465 867
e 465 873
e 465 886
e 465 887
e 465 891
e 465 897
e 465 906
e 465 916
e 465 923
e 465 940
e 465 942
e 465 953
e 465 964
e 465 984
e 465 986
e 465 991
e 466 469
e 466 475
e 466 502
e 466 514
e 466 529
e 466 567
e 466 589
e 466 592
e 466 593
e 466 616
e 466 618
e 466 623
e 466 624
e 466 627
e 466 635
e 466 639
e 466 645
e 466 649
e 466 654
e 466 682
e 466 694
e 466 695
e 466 696
e 466 709
e 466 710
e 466 718
e 466 723
e 466 730
e 466 743
e 466 744
e 466 772
e 466 776
e 466 794
e 466 803
e 466 812
e 466 814
e 466 827
e 466 831
e 466 835
e 466 840
e 466 846
e 466 857
e 466 886
e 466 887
e 466 894
e 466 908
e 466 912
e 466 925
e 466 933
e 466 936
e 466 943
e 466 945
e 466 949
e 466 962
e 466 966
e 466 967
e 466 971
e 466 980
e 466 987
e 466 993
e 467 476
e 467 487
e 467 502
e 467 507
e 467 516
e 467 529
e 467 541
e 467 551
e 467 592
e 467 606
e 467 622
e 467 629
e 467 661
e 467 662
e 467 678
e 467 697
e 467 701
e 467 708
e 467 710
e 467 730
e 467 732
e 467 756
e 467 767
e 467 782
e 467 786
e 467 787
e 467 802
e 467 813
e 467 814
e 467 817
e 467 821
e 467 836
e 467 854
e 467 871
e 467 880
e 467 881
e 467 883
e 467 902
e 467 914
e 467 917
e 467 918
e 467 924
e 467 926
e 467 932
e 467 951
e 467 967
e 467 969
e 467 980
e 468 474
e 468 496
e 468 499
e 468 514
e 468 533
e 468 538
e 468 541
e 468 542
e 468 543
e 468 544
e 468 556
e 468 583
e 468 590
e 468 594
e 468 601
e 468 606
e 468 617
e 468 618
e 468 619
e 468 629
e 468 632
e 468 639
e 468 657
e 468 678
e 468 680
e 468 688
e 468 692
e 468 699
e 468 701
e 468 705
e 468 730
e 468 739
e 468 742
e 468 751
e 468 752
e 468 753
e 468 755
e 468 764
e 468 778
e 468 800
e 468 833
e 468 843
e 468 859
e 468 877
e 468 879
e 468 895
e 468 916
e 468 923
e 468 937
e 468 942
e 468 945
e 468 964
e 468 973
e 469 477
e 469 484
e 469 508
e 469 509
e 469 518
e 469 530
e 469 553
e 469 563
e 469 575
e 469 580
e 469 583
e 469 612
e 469 619
e 469 623
e 469 657
e 469 659
e 469 673
e 469 678
e 469 712
e 469 719
e 469 746
e 469 747
e 469 767
e 469 775
e 469 785
e 469 787
e 469 794
e 469 800
e 469 838
e 469 842
e 469 855
e 469 868
e 469 895
e 469 897
e 469 907
e 469 913
e 469 924
e 469 932
e 469 938
e 469 962
e 469 985
e 469 988
e 469 994
e 469 1000
e 470 482
e 470 485
e 470 492
e 470 497
e 470 498
e 470 531
e 470 534
e 470 543
e 470 545
e 470 565
e 470 568
e 470 569
e 470 570
e 470 579
e 470 594
e 470 599
e 470 600
e 470 601
e 470 606
e 470 607
e 470 609
e 470 612
e 470 615
e 470 616
e 470 625
e 470 636
e 470 639
e 470 649
e 470 650
e 470 654
e 470 665
e 470 671
e 470 677
e 470 691
e 470 709
e 470 711
e 470 739
e 470 741
e 470 779
e 470 783
e 470 793
e 470 799
e 470 805
e 470 812
e 470 821
e 470 822
e 470 830
e 470 837
e 470 855
e 470 867
e 470 876
e 470 882
e 470 915
e 470 916
e 470 920
e 470 929
e 470 938
e 470 940
e 470 961
e 470 967
e 470 977
e 470 986
e 470 993
e 471 484
e 471 488
e 471 497
e 471 499
e 471 507
e 471 518
e 471 529
e 471 558
e 471 592
e 471 595
e 471 596
e 471 612
e 471 613
e 471 615
e 471 620
e 471 631
e 471 637
e 471 638
e 471 640
e 471 658
e 471 662
e 471 667
e 471 668
e 471 670
e 471 677
e 471 681
e 471 699
e 471 707
e 471 709
e 471 725
e 471 729
e 471 736
e 471 739
e 471 744
e 471 745
e 471 755
e 471 756
e 471 757
e 471 770
e 471 776
e 471 801
e 471 807
e 471 816
e 471 821
e 471 822
e 471 823
e 471 842
e 471 853
e 471 854
e 471 855
e 471 872
e 471 885
e 471 890
e 471 891
e 471 892
e 471 899
e 471 902
e 471 913
e 471 918
e 471 923
e 471 934
e 471 944
e 471 951
e 471 964
e 471 979
e 471 981
e 471 988
e 472 481
e 472 503
e 472 518
e 472 522
e 472 523
e 472 526
e 472 533
e 472 534
e 472 548
e 472 552
e 472 560
e 472 565
e 472 587
e 472 606
e 472 613
e 472 619
e 472 625
e 472 641
e 472 654
e 472 684
e 472 692
e 472 705
e 472 707
e 472 731
e 472 760
e 472 777
e 472 805
e 472 806
e 472 837
e 472 850
e 472 851
e 472 855
e 472 872
e 472 877
e 472 881
e 472 891
e 472 917
e 472 919
e 472 937
e 472 947
e 472 950
e 472 954
e 472 962
e 472 969
e 472 970
e 472 976
e 472 977
e 472 980
e 472 982
e 473 482
e 473 483
e 473 484
e 473 490
e 473 528
e 473 556
e 473 562
e 473 568
e 473 570
e 473 580
e 473 583
e 473 591
e 473 598
e 473 605
e 473 607
e 473 612
e 473 625
e 473 639
e 473 646
e 473 691
e 473 692
e 473 697
e 473 699
e 473 738
e 473 740
e 473 742
e 473 747
e 473 749
e 473 768
e 473 772
e 473 780
e 473 782
e 473 814
e 473 817
e 473 830
e 473 840
e 473 862
e 473 868
e 473 873
e 473 877
e 473 890
e 473 906
e 473 912
e 473 942
e 473 969
e 473 970
e 473 980
e 473 981
e 473 982
e 474 475
e 474 485
e 474 488
e 474 505
e 474 507
e 474 510
e 474 513
e 474 515
e 474 524
e 474 529
e 474 530
e 474 537
e 474 541
e 474 543
e 474 560
e 474 563
e 474 583
e 474 590
e 474 595
e 474 598
e 474 604
e 474 613
e 474 629
e 474 652
e 474 654
e 474 667
e 474 673
e 474 674
e 474 689
e 474 714
e 474 720
e 474 729
e 474 741
e 474 743
e 474 764
e 474 770
e 474 771
e 474 775
e 474 784
e 474 804
e 474 812
e 474 853
e 474 875
e 474 876
e 474 906
e 474 910
e 474 928
e 474 930
e 474 932
e 474 935
e 474 956
e 474 968
e 474 996
e 475 477
e 475 487
e 475 489
e 475 511
e 475 514
e 475 529
e 475 537
e 475 547
e 475 562
e 475 567
e 475 570
e 475 572
e 475 584
e 475 586
e 475 596
e 475 604
e 475 608
e 475 617
e 475 621
e 475 630
e 475 631
e 475 634
e 475 636
e 475 638
e 475 649
e 475 658
e 475 667
e 475 680
e 475 691
e 475 695
e 475 702
e 475 707
e 475 711
e 475 712
e 475 726
e 475 729
e 475 740
e 475 753
e 475 755
e 475 765
e 475 778
e 475 798
e 475 810
e 475 847
e 475 849
e 475 853
e 475 889
e 475 893
e 475 898
e 475 908
e 475 913
e 475 920
e 475 939
e 475 943
e 475 944
e 475 953
e 475 963
e 475 969
e 475 992
e 475 997
e 476 487
e 476 499
e 476 503
e 476 505
e 476 523
e 476 530
e 476 532
e 476 546
e 476 558
e 476 561
e 476 562
e 476 568
e 476 572
e 476 577
e 476 585
e 476 602
e 476 629
e 476 632
e 476 635
e 476 656
e 476 683
e 476 688
e 476 691
e 476 694
e 476 701
e 476 722
e 476 725
e 476 737
e 476 749
e 476 750
e 476 784
e 476 792
e 476 794
e 476 800
e 476 816
e 476 817
e 476 822
e 476 823
e 476 832
e 476 833
e 476 855
e 476 862
e 476 883
e 476 897
e 476 898
e 476 908
e 476 914
e 476 920
e 476 930
e 476 931
e 476 936
e 476 937
e 476 943
e 476 952
e 476 960
e 476 963
e 476 977
e 476 982
e 476 986
e 477 485
e 477 497
e 477 510
e 477 511
e 477 513
e 477 514
e 477 516
e 477 532
e 477 538
e 477 542
e 477 554
e 477 561
e 477 568
e 477 571
e 477 590
e 477 604
e 477 613
e 477 621
e 477 635
e 477 640
e 477 648
e 477 659
e 477 668
e 477 670
e 477 675
e 477 699
e 477 715
e 477 717
e 477 719
e 477 761
e 477 772
e 477 778
e 477 787
e 477 795
e 477 808
e 477 836
e 477 837
e 477 839
e 477 841
e 477 861
e 477 896
e 477 901
e 477 903
e 477 919
e 477 932
e 477 938
e 477 939
e 477 948
e 477 964
e 477 985
e 477 988
e 477 993
e 478 491
e 478 508
e 478 520
e 478 522
e 478 523
e 478 543
e 478 545
e 478 573
e 478 589
e 478 596
e 478 598
e 478 605
e 478 609
e 478 642
e 478 662
e 478 683
e 478 692
e 478 715
e 478 723
e 478 725
e 478 735
e 478 749
e 478 754
e 478 756
e 478 758
e 478 759
e 478 773
e 478 776
e 478 781
e 478 790
e 478 791
e 478 802
e 478 822
e 478 832
e 478 861
e 478 874
e 478 891
e 478 909
e 478 947
e 478 985
e 478 998
e 479 493
e 479 508
e 479 518
e 479 520
e 479 540
e 479 544
e 479 545
e 479 570
e 479 573
e 479 585
e 479 597
e 479 598
e 479 599
e 479 610
e 479 618
e 479 632
e 479 666
e 479 668
e 479 686
e 479 698
e 479 703
e 479 722
e 479 733
e 479 738
e 479 742
e 479 757
e 479 758
e 479 763
e 479 785
e 479 802
e 479 827
e 479 831
e 479 845
e 479 871
e 479 887
e 479 897
e 479 915
e 479 928
e 479 929
e 479 951
e 479 973
e 479 990
e 479 999
e 480 499
e 480 517
e 480 524
e 480 545
e 480 551
e 480 556
e 480 562
e 480 564
e 480 569
e 480 571
e 480 574
e 480 575
e 480 585
e 480 586
e 480 593
e 480 596
e 480 599
e 480 605
e 480 607
e 480 617
e 480 624
e 480 630
e 480 640
e 480 642
e 480 649
e 480 655
e 480 676
e 480 693
e 480 700
e 480 701
e 480 703
e 480 715
e 480 719
e 480 733
e 480 742
e 480 745
e 480 747
e 480 755
e 480 769
e 480 772
e 480 775
e 480 784
e 480 787
e 480 788
e 480 801
e 480 806
e 480 815
e 480 819
e 480 822
e 480 823
e 480 829
e 480 851
e 480 853
e 480 859
e 480 863
e 480 887
e 480 894
e 480 895
e 480 903
e 480 913
e 480 914
e 480 935
e 480 937
e 480 948
e 480 955
e 480 958
e 480 992
e 480 996
e 481 494
e 481 499
e 481 503
e 481 517
e 481 547
e 481 556
e 481 563
e 481 575
e 481 579
e 481 587
e 481 613
e 481 633
e 481 636
e 481 640
e 481 643
e 481 646
e 481 657
e 481 664
e 481 665
e 481 666
e 481 671
e 481 672
e 481 683
e 481 684
e 481 689
e 481 693
e 481 697
e 481 704
e 481 716
e 481 719
e 481 722
e 481 724
e 481 744
e 481 746
e 481 747
e 481 756
e 481 761
e 481 765
e 481 785
e 481 800
e 481 801
e 481 802
e 481 811
e 481 828
e 481 833
e 481 842
e 481 852
e 481 853
e 481 866
e 481 877
e 481 879
e 481 905
e 481 906
e 481 922
e 481 929
e 481 942
e 481 956
e 481 958
e 481 985
e 481 988
e 481 995
e 481 997
e 481 999
e 482 490
e 482 522
e 482 537
e 482 540
e 482 545
e 482 564
e 482 569
e 482 583
e 482 592
e 482 594
e 482 603
e 482 619
e 482 621
e 482 629
e 482 631
e 482 634
e 482 644
e 482 693
e 482 706
e 482 712
e 482 722
e 482 740
e 482 750
e 482 768
e 482 787
e 482 806
e 482 813
e 482 815
e 482 818
e 482 831
e 482 860
e 482 886
e 482 887
e 482 888
e 482 894
e 482 895
e 482 902
e 482 910
e 482 920
e 482 938
e 482 955
e 482 961
e 482 978
e 482 981
e 482 984
e 482 997
e 483 499
e 483 504
e 483 530
e 483 536
e 483 555
e 483 556
e 483 569
e 483 576
e 483 582
e 483 585
e 483 658
e 483 661
e 483 669
e 483 672
e 483 689
e 483 695
e 483 725
e 483 727
e 483 748
e 483 753
e 483 760
e 483 766
e 483 782
e 483 786
e 483 799
e 483 814
e 483 835
e 483 838
e 483 839
e 483 850
e 483 852
e 483 859
e 483 864
e 483 869
e 483 871
e 483 882
e 483 888
e 483 892
e 483 898
e 483 923
e 483 924
e 483 933
e 483 936
e 483 941
e 483 948
e 483 951
e 483 961
e 483 967
e 483 982
e 483 987
e 483 991
e 483 1000
e 484 492
e 484 498
e 484 523
e 484 528
e 484 538
e 484 543
e 484 549
e 484 550
e 484 559
e 484 575
e 484 581
e 484 591
e 484 601
e 484 614
e 484 664
e 484 668
e 484 669
e 484 671
e 484 705
e 484 706
e 484 720
e 484 731
e 484 788
e 484 797
e 484 820
e 484 821
e 484 834
e 484 835
e 484 840
e 484 861
e 484 870
e 484 879
e 484 886
e 484 888
e 484 907
e 484 911
e 484 922
e 484 927
e 484 930
e 484 932
e 484 935
e 484 942
e 484 943
e 484 980
e 484 983
e 484 988
e 485 506
e 485 508
e 485 531
e 485 536
e 485 552
e 485 553
e 485 581
e 485 584
e 485 598
e 485 601
e 485 618
e 485 629
e 485 630
e 485 651
e 485 661
e 485 663
e 485 673
e 485 689
e 485 693
e 485 705
e 485 715
e 485 719
e 485 731
e 485 736
e 485 737
e 485 753
e 485 775
e 485 782
e 485 783
e 485 803
e 485 813
e 485 814
e 485 816
e 485 840
e 485 842
e 485 874
e 485 877
e 485 884
e 485 899
e 485 900
e 485 903
e 485 908
e 485 910
e 485 913
e 485 928
e 485 939
e 485 940
e 485 942
e 485 943
e 485 956
e 485 964
e 485 967
e 485 989
e 485 992
e 486 511
e 486 518
e 486 519
e 486 524
e 486 528
e 486 547
e 486 569
e 486 573
e 486 576
e 486 589
e 486 599
e 486 608
e 486 639
e 486 674
e 486 679
e 486 685
e 486 686
e 486 709
e 486 710
e 486 715
e 486 736
e 486 739
e 486 740
e 486 745
e 486 746
e 486 755
e 486 763
e 486 784
e 486 789
e 486 811
e 486 851
e 486 866
e 486 878
e 486 891
e 486 893
e 486 907
e 486 938
e 486 939
e 486 942
e 486 944
e 486 950
e 486 969
e 486 974
e 486 1000
e 487 493
e 487 496
e 487 523
e 487 538
e 487 547
e 487 560
e 487 580
e 487 599
e 487 601
e 487 604
e 487 609
e 487 613
e 487 625
e 487 630
e 487 640
e 487 641
e 487 642
e 487 648
e 487 651
e 487 656
e 487 693
e 487 700
e 487 703
e 487 728
e 487 737
e 487 754
e 487 755
e 487 778
e 487 793
e 487 794
e 487 796
e 487 807
e 487 818
e 487 830
e 487 834
e 487 872
e 487 885
e 487 886
e 487 897
e 487 900
e 487 903
e 487 908
e 487 912
e 487 928
e 487 932
e 487 939
e 487 940
e 487 941
e 487 944
e 487 946
e 487 947
e 487 958
e 487 961
e 487 980
e 487 985
e 487 997
e 488 506
e 488 512
e 488 524
e 488 531
e 488 535
e 488 542
e 488 547
e 488 573
e 488 574
e 488 578
e 488 582
e 488 589
e 488 608
e 488 635
e 488 652
e 488 673
e 488 674
e 488 675
e 488 716
e 488 717
e 488 729
e 488 734
e 488 741
e 488 743
e 488 766
e 488 773
e 488 810
e 488 813
e 488 820
e 488 826
e 488 832
e 488 835
e 488 850
e 488 851
e 488 857
e 488 873
e 488 887
e 488 888
e 488 904
e 488 915
e 488 926
e 488 931
e 488 932
e 488 933
e 488 950
e 488 955
e 488 958
e 488 969
e 488 980
e 488 986
e 488 991
e 488 994
e 488 996
e 489 526
e 489 533
e 489 539
e 489 545
e 489 550
e 489 568
e 489 571
e 489 574
e 489 580
e 489 620
e 489 622
e 489 651
e 489 657
e 489 665
e 489 685
e 489 702
e 489 727
e 489 743
e 489 753
e 489 762
e 489 763
e 489 775
e 489 814
e 489 823
e 489 827
e 489 843
e 489 852
e 489 868
e 489 875
e 489 885
e 489 934
e 489 952
e 489 976
e 489 984
e 489 985
e 490 493
e 490 498
e 490 502
e 490 506
e 490 528
e 490 552
e 490 561
e 490 574
e 490 575
e 490 576
e 490 577
e 490 587
e 490 591
e 490 601
e 490 614
e 490 630
e 490 636
e 490 637
e 490 639
e 490 655
e 490 662
e 490 678
e 490 680
e 490 683
e 490 689
e 490 692
e 490 713
e 490 719
e 490 735
e 490 769
e 490 779
e 490 780
e 490 793
e 490 799
e 490 814
e 490 823
e 490 838
e 490 846
e 490 848
e 490 852
e 490 862
e 490 865
e 490 878
e 490 885
e 490 897
e 490 905
e 490 908
e 490 910
e 490 911
e 490 918
e 490 919
e 490 920
e 490 939
e 490 949
e 490 950
e 490 970
e 490 979
e 491 499
e 491 504
e 491 505
e 491 525
e 491 537
e 491 541
e 491 555
e 491 564
e 491 568
e 491 572
e 491 595
e 491 599
e 491 601
e 491 610
e 491 620
e 491 622
e 491 634
e 491 636
e 491 640
e 491 646
e 491 652
e 491 670
e 491 676
e 491 678
e 491 691
e 491 701
e 491 707
e 491 713
e 491 723
e 491 734
e 491 736
e 491 740
e 491 751
e 491 752
e 491 755
e 491 761
e 491 785
e 491 792
e 491 802
e 491 806
e 491 809
e 491 814
e 491 831
e 491 859
e 491 865
e 491 869
e 491 883
e 491 886
e 491 911
e 491 922
e 491 944
e 491 960
e 491 981
e 491 984
e 491 988
e 491 994
e 491 995
e 492 543
e 492 548
e 492 556
e 492 574
e 492 582
e 492 589
e 492 594
e 492 598
e 492 603
e 492 607
e 492 610
e 492 621
e 492 624
e 492 630
e 492 636
e 492 642
e 492 650
e 492 670
e 492 671
e 492 677
e 492 685
e 492 691
e 492 692
e 492 706
e 492 713
e 492 731
e 492 746
e 492 748
e 492 760
e 492 766
e 492 783
e 492 790
e 492 795
e 492 803
e 492 804
e 492 831
e 492 834
e 492 838
e 492 859
e 492 860
e 492 866
e 492 870
e 492 873
e 492 875
e 492 876
e 492 885
e 492 905
e 492 920
e 492 927
e 492 929
e 492 931
e 492 942
e 492 960
e 492 972
e 492 978
e 492 980
e 492 989
e 492 992
e 493 494
e 493 496
e 493 503
e 493 531
e 493 535
e 493 542
e 493 544
e 493 550
e 493 556
e 493 557
e 493 573
e 493 574
e 493 591
e 493 595
e 493 612
e 493 616
e 493 627
e 493 632
e 493 639
e 493 683
e 493 684
e 493 689
e 493 711
e 493 717
e 493 736
e 493 737
e 493 740
e 493 752
e 493 757
e 493 773
e 493 774
e 493 785
e 493 798
e 493 801
e 493 805
e 493 810
e 493 818
e 493 828
e 493 832
e 493 854
e 493 861
e 493 875
e 493 903
e 493 943
e 493 951
e 493 969
e 493 982
e 493 990
e 493 994
e 494 501
e 494 514
e 494 521
e 494 530
e 494 558
e 494 596
e 494 599
e 494 601
e 494 618
e 494 644
e 494 708
e 494 711
e 494 729
e 494 732
e 494 753
e 494 759
e 494 763
e 494 766
e 494 825
e 494 826
e 494 829
e 494 844
e 494 847
e 494 886
e 494 891
e 494 897
e 494 915
e 494 938
e 494 946
e 494 958
e 494 960
e 494 982
e 494 991
e 494 993
e 495 496
e 495 503
e 495 516
e 495 539
e 495 545
e 495 554
e 495 557
e 495 571
e 495 590
e 495 601
e 495 607
e 495 611
e 495 615
e 495 619
e 495 636
e 495 640
e 495 646
e 495 677
e 495 701
e 495 723
e 495 735
e 495 745
e 495 746
e 495 747
e 495 761
e 495 769
e 495 782
e 495 787
e 495 793
e 495 799
e 495 802
e 495 807
e 495 829
e 495 831
e 495 856
e 495 870
e 495 882
e 495 892
e 495 908
e 495 913
e 495 923
e 495 937
e 495 959
e 495 970
e 496 499
e 496 513
e 496 525
e 496 526
e 496 533
e 496 556
e 496 557
e 496 572
e 496 578
e 496 579
e 496 596
e 496 598
e 496 604
e 496 622
e 496 652
e 496 673
e 496 677
e 496 679
e 496 683
e 496 699
e 496 723
e 496 741
e 496 742
e 496 775
e 496 778
e 496 817
e 496 819
e 496 828
e 496 853
e 496 855
e 496 862
e 496 866
e 496 871
e 496 881
e 496 883
e 496 888
e 496 890
e 496 903
e 496 913
e 496 924
e 496 929
e 496 944
e 496 952
e 496 963
e 496 965
e 496 979
e 496 980
e 496 983
e 497 511
e 497 515
e 497 518
e 497 519
e 497 528
e 497 539
e 497 548
e 497 551
e 497 558
e 497 560
e 497 578
e 497 579
e 497 582
e 497 583
e 497 585
e 497 589
e 497 616
e 497 618
e 497 619
e 497 620
e 497 638
e 497 656
e 497 662
e 497 671
e 497 678
e 497 683
e 497 707
e 497 713
e 497 725
e 497 733
e 497 734
e 497 758
e 497 765
e 497 768
e 497 775
e 497 781
e 497 790
e 497 804
e 497 817
e 497 823
e 497 848
e 497 852
e 497 856
e 497 878
e 497 897
e 497 911
e 497 918
e 497 923
e 497 928
e 497 932
e 497 950
e 497 960
e 497 961
e 497 980
e 497 986
e 497 990
e 497 995
e 498 499
e 498 511
e 498 513
e 498 522
e 498 538
e 498 541
e 498 544
e 498 594
e 498 596
e 498 599
e 498 607
e 498 618
e 498 621
e 498 623
e 498 637
e 498 649
e 498 678
e 498 684
e 498 707
e 498 709
e 498 718
e 498 731
e 498 734
e 498 746
e 498 751
e 498 767
e 498 769
e 498 770
e 498 775
e 498 779
e 498 818
e 498 833
e 498 851
e 498 854
e 498 869
e 498 870
e 498 871
e 498 875
e 498 876
e 498 890
e 498 895
e 498 901
e 498 916
e 498 929
e 498 935
e 498 937
e 498 940
e 498 954
e 498 956
e 498 966
e 498 983
e 499 513
e 499 518
e 499 519
e 499 568
e 499 569
e 499 576
e 499 582
e 499 601
e 499 605
e 499 618
e 499 627
e 499 642
e 499 678
e 499 685
e 499 702
e 499 703
e 499 718
e 499 725
e 499 736
e 499 739
e 499 745
e 499 770
e 499 781
e 499 785
e 499 790
e 499 799
e 499 830
e 499 835
e 499 840
e 499 859
e 499 879
e 499 891
e 499 899
e 499 909
e 499 962
e 499 985
e 499 990
e 499 992
e 499 999
e 500 502
e 500 535
e 500 543
e 500 567
e 500 591
e 500 597
e 500 614
e 500 617
e 500 626
e 500 628
e 500 645
e 500 676
e 500 684
e 500 686
e 500 699
e 500 705
e 500 708
e 500 710
e 500 730
e 500 750
e 500 755
e 500 758
e 500 761
e 500 779
e 500 787
e 500 792
e 500 795
e 500 815
e 500 821
e 500 824
e 500 831
e 500 835
e 500 848
e 500 861
e 500 867
e 500 891
e 500 899
e 500 904
e 500 911
e 500 912
e 500 927
e 500 949
e 500 954
e 500 957
e 500 962
e 500 968
e 500 974
e 500 987
e 501 505
e 501 516
e 501 528
e 501 530
e 501 533
e 501 553
e 501 568
e 501 572
e 501 574
e 501 588
e 501 589
e 501 621
e 501 628
e 501 635
e 501 641
e 501 642
e 501 647
e 501 658
e 501 660
e 501 666
e 501 667
e 501 672
e 501 697
e 501 698
e 501 739
e 501 740
e 501 791
e 501 814
e 501 827
e 501 831
e 501 834
e 501 859
e 501 861
e 501 879
e 501 898
e 501 903
e 501 916
e 501 923
e 501 932
e 501 944
e 501 952
e 501 957
e 501 975
e 501 976
e 501 978
e 501 999
e 502 529
e 502 546
e 502 561
e 502 575
e 502 583
e 502 584
e 502 588
e 502 594
e 502 602
e 502 607
e 502 619
e 502 626
e 502 636
e 502 645
e 502 646
e 502 660
e 502 661
e 502 665
e 502 674
e 502 682
e 502 684
e 502 686
e 502 691
e 502 693
e 502 724
e 502 752
e 502 760
e 502 773
e 502 812
e 502 829
e 502 831
e 502 841
e 502 843
e 502 852
e 502 870
e 502 881
e 502 894
e 502 924
e 502 925
e 502 945
e 502 949
e 502 956
e 502 957
e 502 967
e 502 971
e 503 510
e 503 524
e 503 542
e 503 547
e 503 577
e 503 581
e 503 588
e 503 611
e 503 617
e 503 619
e 503 624
e 503 627
e 503 628
e 503 631
e 503 641
e 503 646
e 503 647
e 503 648
e 503 702
e 503 709
e 503 714
e 503 753
e 503 759
e 503 760
e 503 784
e 503 802
e 503 806
e 503 828
e 503 830
e 503 832
e 503 838
e 503 848
e 503 852
e 503 857
e 503 858
e 503 862
e 503 865
e 503 866
e 503 890
e 503 895
e 503 902
e 503 904
e 503 908
e 503 917
e 503 925
e 503 929
e 503 962
e 503 977
e 503 990
e 503 997
e 504 505
e 504 509
e 504 518
e 504 532
e 504 534
e 504 550
e 504 582
e 504 584
e 504 590
e 504 592
e 504 599
e 504 606
e 504 613
e 504 626
e 504 631
e 504 646
e 504 653
e 504 657
e 504 675
e 504 679
e 504 680
e 504 714
e 504 728
e 504 731
e 504 746
e 504 772
e 504 778
e 504 813
e 504 826
e 504 831
e 504 843
e 504 886
e 504 894
e 504 907
e 504 926
e 504 927
e 504 951
e 504 952
e 504 965
e 504 978
e 504 994
e 505 521
e 505 535
e 505 542
e 505 546
e 505 551
e 505 559
e 505 564
e 505 565
e 505 569
e 505 573
e 505 575
e 505 579
e 505 604
e 505 614
e 505 633
e 505 641
e 505 644
e 505 654
e 505 656
e 505 659
e 505 662
e 505 663
e 505 674
e 505 676
e 505 681
e 505 684
e 505 690
e 505 695
e 505 706
e 505 716
e 505 724
e 505 742
e 505 780
e 505 806
e 505 809
e 505 823
e 505 829
e 505 830
e 505 831
e 505 833
e 505 841
e 505 854
e 505 871
e 505 872
e 505 878
e 505 882
e 505 886
e 505 887
e 505 907
e 505 915
e 505 923
e 505 930
e 505 932
e 505 940
e 505 955
e 505 960
e 505 964
e 505 972
e 505 974
e 505 986
e 505 993
e 506 517
e 506 523
e 506 532
e 506 534
e 506 542
e 506 546
e 506 548
e 506 571
e 506 573
e 506 584
e 506 602
e 506 604
e 506 634
e 506 648
e 506 689
e 506 702
e 506 726
e 506 730
e 506 744
e 506 754
e 506 759
e 506 763
e 506 764
e 506 770
e 506 782
e 506 785
e 506 788
e 506 791
e 506 797
e 506 810
e 506 815
e 506 819
e 506 827
e 506 847
e 506 859
e 506 862
e 506 867
e 506 873
e 506 882
e 506 889
e 506 892
e 506 895
e 506 917
e 506 931
e 506 939
e 506 942
e 506 946
e 506 966
e 506 969
e 506 980
e 506 987
e 506 1000
e 507 519
e 507 522
e 507 528
e 507 538
e 507 541
e 507 555
e 507 563
e 507 567
e 507 571
e 507 572
e 507 574
e 507 582
e 507 593
e 507 634
e 507 648
e 507 650
e 507 651
e 507 659
e 507 663
e 507 673
e 507 711
e 507 748
e 507 754
e 507 761
e 507 766
e 507 770
e 507 778
e 507 781
e 507 783
e 507 784
e 507 785
e 507 796
e 507 811
e 507 814
e 507 817
e 507 819
e 507 829
e 507 848
e 507 855
e 507 856
e 507 857
e 507 866
e 507 871
e 507 874
e 507 876
e 507 883
e 507 900
e 507 911
e 507 919
e 507 951
e 507 967
e 507 981
e 507 988
e 507 994
e 508 516
e 508 523
e 508 544
e 508 561
e 508 574
e 508 582
e 508 586
e 508 588
e 508 622
e 508 635
e 508 641
e 508 642
e 508 668
e 508 674
e 508 679
e 508 682
e 508 697
e 508 724
e 508 732
e 508 747
e 508 757
e 508 783
e 508 820
e 508 834
e 508 840
e 508 846
e 508 861
e 508 863
e 508 890
e 508 893
e 508 913
e 508 932
e 508 934
e 508 962
e 508 975
e 508 980
e 508 987
e 508 990
e 508 998
e 509 518
e 509 537
e 509 539
e 509 569
e 509 577
e 509 579
e 509 599
e 509 605
e 509 623
e 509 629
e 509 631
e 509 649
e 509 673
e 509 679
e 509 694
e 509 704
e 509 710
e 509 749
e 509 767
e 509 778
e 509 779
e 509 781
e 509 786
e 509 787
e 509 789
e 509 802
e 509 803
e 509 808
e 509 812
e 509 813
e 509 817
e 509 823
e 509 830
e 509 836
e 509 851
e 509 856
e 509 861
e 509 865
e 509 869
e 509 875
e 509 880
e 509 881
e 509 893
e 509 909
e 509 912
e 509 922
e 509 926
e 509 928
e 509 931
e 509 939
e 509 957
e 509 973
e 510 517
e 510 526
e 510 528
e 510 529
e 510 532
e 510 533
e 510 538
e 510 540
e 510 554
e 510 573
e 510 579
e 510 584
e 510 587
e 510 607
e 510 615
e 510 620
e 510 629
e 510 631
e 510 638
e 510 643
e 510 656
e 510 670
e 510 711
e 510 720
e 510 722
e 510 735
e 510 742
e 510 755
e 510 785
e 510 804
e 510 806
e 510 813
e 510 814
e 510 815
e 510 819
e 510 820
e 510 840
e 510 845
e 510 848
e 510 858
e 510 884
e 510 894
e 510 915
e 510 918
e 510 930
e 510 938
e 510 943
e 510 951
e 510 962
e 510 967
e 510 972
e 510 986
e 511 520
e 511 525
e 511 552
e 511 562
e 511 570
e 511 588
e 511 590
e 511 595
e 511 606
e 511 607
e 511 626
e 511 629
e 511 630
e 511 658
e 511 660
e 511 666
e 511 676
e 511 682
e 511 690
e 511 697
e 511 716
e 511 731
e 511 732
e 511 735
e 511 739
e 511 740
e 511 767
e 511 775
e 511 780
e 511 798
e 511 805
e 511 807
e 511 811
e 511 813
e 511 818
e 511 826
e 511 828
e 511 843
e 511 845
e 511 848
e 511 869
e 511 876
e 511 881
e 511 882
e 511 896
e 511 902
e 511 906
e 511 910
e 511 916
e 511 926
e 511 927
e 511 943
e 511 950
e 511 952
e 511 955
e 511 961
e 511 971
e 511 982
e 511 984
e 511 991
e 511 1000
e 512 524
e 512 532
e 512 540
e 512 557
e 512 559
e 512 561
e 512 568
e 512 575
e 512 612
e 512 626
e 512 627
e 512 630
e 512 633
e 512 650
e 512 671
e 512 684
e 512 687
e 512 695
e 512 697
e 512 719
e 512 727
e 512 732
e 512 742
e 512 758
e 512 759
e 512 762
e 512 773
e 512 774
e 512 786
e 512 787
e 512 815
e 512 818
e 512 821
e 512 834
e 512 843
e 512 845
e 512 853
e 512 861
e 512 863
e 512 879
e 512 885
e 512 895
e 512 906
e 512 918
e 512 930
e 512 973
e 512 975
e 512 978
e 512 984
e 512 985
e 512 986
e 512 988
e 512 990
e 513 518
e 513 532
e 513 542
e 513 553
e 513 560
e 513 561
e 513 574
e 513 575
e 513 576
e 513 585
e 513 628
e 513 629
e 513 635
e 513 637
e 513 638
e 513 645
e 513 651
e 513 657
e 513 658
e 513 667
e 513 678
e 513 681
e 513 695
e 513 696
e 513 699
e 513 738
e 513 747
e 513 751
e 513 755
e 513 767
e 513 769
e 513 774
e 513 783
e 513 791
e 513 798
e 513 802
e 513 806
e 513 812
e 513 815
e 513 822
e 513 830
e 513 853
e 513 857
e 513 872
e 513 893
e 513 903
e 513 904
e 513 918
e 513 952
e 513 954
e 513 958
e 513 977
e 513 988
e 513 990
e 514 530
e 514 548
e 514 552
e 514 558
e 514 561
e 514 578
e 514 605
e 514 651
e 514 668
e 514 669
e 514 689
e 514 693
e 514 699
e 514 709
e 514 715
e 514 718
e 514 719
e 514 741
e 514 763
e 514 777
e 514 779
e 514 803
e 514 846
e 514 853
e 514 889
e 514 890
e 514 893
e 514 895
e 514 905
e 514 908
e 514 933
e 514 937
e 514 948
e 514 959
e 514 960
e 514 962
e 514 1000
e 515 567
e 515 583
e 515 591
e 515 593
e 515 598
e 515 601
e 515 603
e 515 611
e 515 615
e 515 619
e 515 638
e 515 649
e 515 659
e 515 670
e 515 687
e 515 695
e 515 698
e 515 704
e 515 706
e 515 715
e 515 720
e 515 728
e 515 733
e 515 739
e 515 773
e 515 775
e 515 783
e 515 788
e 515 804
e 515 809
e 515 815
e 515 842
e 515 847
e 515 849
e 515 862
e 515 864
e 515 869
e 515 884
e 515 901
e 515 910
e 515 928
e 515 937
e 515 942
e 515 953
e 515 960
e 515 1000
e 516 525
e 516 530
e 516 534
e 516 539
e 516 555
e 516 560
e 516 569
e 516 593
e 516 595
e 516 600
e 516 609
e 516 613
e 516 625
e 516 626
e 516 630
e 516 639
e 516 648
e 516 656
e 516 658
e 516 669
e 516 683
e 516 704
e 516 706
e 516 711
e 516 712
e 516 715
e 516 718
e 516 748
e 516 759
e 516 765
e 516 767
e 516 768
e 516 770
e 516 771
e 516 778
e 516 784
e 516 791
e 516 799
e 516 806
e 516 812
e 516 822
e 516 842
e 516 849
e 516 850
e 516 869
e 516 877
e 516 880
e 516 881
e 516 883
e 516 884
e 516 890
e 516 894
e 516 919
e 516 930
e 516 956
e 516 961
e 516 983
e 516 994
e 517 538
e 517 544
e 517 551
e 517 556
e 517 569
e 517 571
e 517 572
e 517 592
e 517 602
e 517 617
e 517 622
e 517 630
e 517 641
e 517 646
e 517 671
e 517 682
e 517 695
e 517 696
e 517 714
e 517 719
e 517 739
e 517 741
e 517 744
e 517 749
e 517 751
e 517 767
e 517 771
e 517 779
e 517 797
e 517 799
e 517 802
e 517 817
e 517 829
e 517 835
e 517 836
e 517 854
e 517 859
e 517 860
e 517 878
e 517 901
e 517 908
e 517 933
e 517 944
e 517 961
e 517 977
e 517 986
e 517 995
e 518 520
e 518 528
e 518 536
e 518 562
e 518 607
e 518 608
e 518 648
e 518 654
e 518 687
e 518 700
e 518 716
e 518 721
e 518 730
e 518 732
e 518 735
e 518 755
e 518 761
e 518 779
e 518 784
e 518 786
e 518 789
e 518 795
e 518 801
e 518 804
e 518 807
e 518 818
e 518 829
e 518 831
e 518 833
e 518 836
e 518 841
e 518 862
e 518 872
e 518 881
e 518 883
e 518 884
e 518 885
e 518 896
e 518 898
e 518 923
e 518 954
e 518 960
e 518 972
e 518 984
e 518 985
e 519 533
e 519 552
e 519 556
e 519 562
e 519 566
e 519 576
e 519 586
e 519 607
e 519 628
e 519 632
e 519 642
e 519 645
e 519 650
e 519 658
e 519 667
e 519 691
e 519 692
e 519 706
e 519 714
e 519 736
e 519 767
e 519 774
e 519 776
e 519 787
e 519 809
e 519 815
e 519 817
e 519 821
e 519 823
e 519 845
e 519 849
e 519 852
e 519 856
e 519 860
e 519 866
e 519 869
e 519 870
e 519 904
e 519 924
e 519 927
e 519 930
e 519 934
e 519 946
e 519 955
e 519 959
e 519 962
e 519 981
e 519 987
e 519 990
e 519 997
e 520 554
e 520 575
e 520 584
e 520 590
e 520 601
e 520 632
e 520 638
e 520 640
e 520 653
e 520 659
e 520 678
e 520 687
e 520 700
e 520 703
e 520 710
e 520 711
e 520 719
e 520 730
e 520 739
e 520 751
e 520 753
e 520 768
e 520 777
e 520 797
e 520 814
e 520 823
e 520 839
e 520 842
e 520 845
e 520 863
e 520 864
e 520 866
e 520 867
e 520 868
e 520 889
e 520 912
e 520 917
e 520 920
e 520 926
e 520 928
e 520 932
e 520 939
e 520 943
e 520 958
e 520 966
e 520 968
e 520 969
e 520 971
e 520 994
e 520 996
e 521 538
e 521 548
e 521 560
e 521 565
e 521 566
e 521 567
e 521 569
e 521 570
e 521 571
e 521 573
e 521 616
e 521 625
e 521 639
e 521 645
e 521 661
e 521 664
e 521 677
e 521 678
e 521 681
e 521 682
e 521 696
e 521 701
e 521 714
e 521 740
e 521 749
e 521 755
e 521 763
e 521 768
e 521 773
e 521 797
e 521 849
e 521 850
e 521 855
e 521 870
e 521 873
e 521 874
e 521 880
e 521 907
e 521 909
e 521 948
e 521 964
e 521 965
e 521 991
e 522 530
e 522 534
e 522 536
e 522 537
e 522 554
e 522 562
e 522 565
e 522 573
e 522 575
e 522 596
e 522 605
e 522 625
e 522 631
e 522 635
e 522 639
e 522 640
e 522 655
e 522 683
e 522 687
e 522 700
e 522 712
e 522 714
e 522 716
e 522 724
e 522 726
e 522 729
e 522 745
e 522 749
e 522 757
e 522 759
e 522 763
e 522 778
e 522 788
e 522 793
e 522 814
e 522 817
e 522 825
e 522 835
e 522 851
e 522 856
e 522 875
e 522 908
e 522 915
e 522 916
e 522 930
e 522 963
e 522 974
e 523 529
e 523 557
e 523 561
e 523 585
e 523 608
e 523 637
e 523 647
e 523 672
e 523 677
e 523 687
e 523 696
e 523 704
e 523 709
e 523 716
e 523 720
e 523 732
e 523 734
e 523 735
e 523 736
e 523 747
e 523 755
e 523 774
e 523 783
e 523 786
e 523 792
e 523 793
e 523 798
e 523 810
e 523 849
e 523 860
e 523 878
e 523 891
e 523 893
e 523 934
e 523 937
e 523 940
e 523 958
e 523 962
e 523 965
e 523 981
e 523 987
e 524 542
e 524 543
e 524 547
e 524 573
e 524 595
e 524 597
e 524 607
e 524 610
e 524 625
e 524 629
e 524 640
e 524 642
e 524 659
e 524 662
e 524 692
e 524 695
e 524 701
e 524 708
e 524 727
e 524 737
e 524 738
e 524 741
e 524 748
e 524 782
e 524 795
e 524 805
e 524 813
e 524 818
e 524 827
e 524 828
e 524 831
e 524 837
e 524 853
e 524 855
e 524 861
e 524 865
e 524 866
e 524 873
e 524 901
e 524 913
e 524 914
e 524 916
e 524 918
e 524 950
e 524 955
e 524 963
e 525 545
e 525 552
e 525 554
e 525 562
e 525 564
e 525 568
e 525 579
e 525 592
e 525 607
e 525 609
e 525 616
e 525 628
e 525 637
e 525 640
e 525 642
e 525 653
e 525 660
e 525 663
e 525 664
e 525 666
e 525 670
e 525 679
e 525 683
e 525 690
e 525 714
e 525 735
e 525 736
e 525 749
e 525 752
e 525 761
e 525 762
e 525 763
e 525 772
e 525 805
e 525 816
e 525 826
e 525 832
e 525 844
e 525 855
e 525 860
e 525 897
e 525 914
e 525 917
e 525 949
e 525 958
e 525 991
e 526 530
e 526 539
e 526 546
e 526 548
e 526 554
e 526 568
e 526 572
e 526 574
e 526 576
e 526 589
e 526 593
e 526 594
e 526 597
e 526 605
e 526 628
e 526 631
e 526 636
e 526 637
e 526 640
e 526 650
e 526 662
e 526 666
e 526 680
e 526 683
e 526 698
e 526 738
e 526 784
e 526 795
e 526 800
e 526 801
e 526 805
e 526 806
e 526 810
e 526 828
e 526 829
e 526 831
e 526 832
e 526 836
e 526 852
e 526 854
e 526 866
e 526 884
e 526 894
e 526 898
e 526 907
e 526 910
e 526 923
e 526 947
e 526 950
e 526 984
e 526 999
e 527 542
e 527 562
e 527 565
e 527 568
e 527 582
e 527 589
e 527 593
e 527 602
e 527 633
e 527 645
e 527 652
e 527 654
e 527 666
e 527 679
e 527 683
e 527 690
e 527 696
e 527 698
e 527 721
e 527 730
e 527 738
e 527 747
e 527 755
e 527 756
e 527 760
e 527 762
e 527 782
e 527 787
e 527 791
e 527 800
e 527 803
e 527 819
e 527 835
e 527 838
e 527 845
e 527 847
e 527 849
e 527 853
e 527 898
e 527 900
e 527 903
e 527 911
e 527 917
e 527 920
e 527 926
e 527 944
e 527 963
e 527 979
e 527 980
e 527 987
e 527 988
e 527 991
e 527 1000
e 528 534
e 528 537
e 528 545
e 528 566
e 528 572
e 528 582
e 528 584
e 528 587
e 528 589
e 528 592
e 528 609
e 528 614
e 528 625
e 528 631
e 528 636
e 528 643
e 528 664
e 528 684
e 528 721
e 528 722
e 528 731
e 528 736
e 528 740
e 528 744
e 528 746
e 528 759
e 528 760
e 528 767
e 528 777
e 528 780
e 528 793
e 528 798
e 528 800
e 528 801
e 528 818
e 528 822
e 528 843
e 528 859
e 528 863
e 528 882
e 528 889
e 528 903
e 528 904
e 528 924
e 528 925
e 528 952
e 528 961
e 528 965
e 528 971
e 528 981
e 528 988
e 528 989
e 528 993
e 528 999
e 529 535
e 529 536
e 529 542
e 529 554
e 529 581
e 529 586
e 529 602
e 529 603
e 529 610
e 529 611
e 529 621
e 529 629
e 529 631
e 529 633
e 529 639
e 529 654
e 529 663
e 529 681
e 529 689
e 529 691
e 529 697
e 529 698
e 529 702
e 529 705
e 529 710
e 529 728
e 529 732
e 529 736
e 529 742
e 529 752
e 529 754
e 529 764
e 529 775
e 529 784
e 529 787
e 529 790
e 529 791
e 529 797
e 529 804
e 529 806
e 529 808
e 529 817
e 529 830
e 529 837
e 529 856
e 529 862
e 529 863
e 529 880
e 529 882
e 529 883
e 529 886
e 529 890
e 529 899
e 529 927
e 529 951
e 529 955
e 529 967
e 529 979
e 529 991
e 530 589
e 530 599
e 530 604
e 530 607
e 530 614
e 530 617
e 530 628
e 530 630
e 530 632
e 530 645
e 530 651
e 530 660
e 530 667
e 530 676
e 530 694
e 530 702
e 530 715
e 530 723
e 530 724
e 530 727
e 530 729
e 530 735
e 530 738
e 530 740
e 530 765
e 530 797
e 530 803
e 530 847
e 530 870
e 530 889
e 530 904
e 530 913
e 530 917
e 530 926
e 530 933
e 530 984
e 531 545
e 531 555
e 531 577
e 531 586
e 531 603
e 531 630
e 531 642
e 531 655
e 531 674
e 531 678
e 531 701
e 531 704
e 531 745
e 531 747
e 531 783
e 531 822
e 531 842
e 531 846
e 531 849
e 531 862
e 531 865
e 531 872
e 531 878
e 531 918
e 531 926
e 531 930
e 531 936
e 531 942
e 531 944
e 531 949
e 531 957
e 531 966
e 531 973
e 531 976
e 531 978
e 531 982
e 531 983
e 532 536
e 532 554
e 532 557
e 532 559
e 532 578
e 532 584
e 532 611
e 532 617
e 532 626
e 532 627
e 532 631
e 532 649
e 532 655
e 532 669
e 532 677
e 532 684
e 532 690
e 532 699
e 532 704
e 532 711
e 532 717
e 532 742
e 532 751
e 532 752
e 532 755
e 532 762
e 532 771
e 532 780
e 532 789
e 532 797
e 532 811
e 532 833
e 532 834
e 532 835
e 532 836
e 532 850
e 532 857
e 532 888
e 532 891
e 532 893
e 532 911
e 532 912
e 532 913
e 532 936
e 532 945
e 532 947
e 532 955
e 532 970
e 532 976
e 532 997
e 533 554
e 533 565
e 533 568
e 533 571
e 533 586
e 533 589
e 533 601
e 533 611
e 533 633
e 533 667
e 533 670
e 533 675
e 533 688
e 533 689
e 533 707
e 533 709
e 533 718
e 533 731
e 533 734
e 533 756
e 533 765
e 533 769
e 533 782
e 533 788
e 533 801
e 533 810
e 533 816
e 533 825
e 533 839
e 533 849
e 533 851
e 533 858
e 533 873
e 533 876
e 533 881
e 533 883
e 533 886
e 533 892
e 533 929
e 533 941
e 533 946
e 533 972
e 533 990
e 534 537
e 534 538
e 534 539
e 534 541
e 534 545
e 534 554
e 534 560
e 534 567
e 534 584
e 534 587
e 534 593
e 534 594
e 534 601
e 534 603
e 534 605
e 534 649
e 534 666
e 534 676
e 534 692
e 534 703
e 534 714
e 534 720
e 534 723
e 534 725
e 534 729
e 534 732
e 534 740
e 534 742
e 534 753
e 534 756
e 534 757
e 534 760
e 534 762
e 534 763
e 534 768
e 534 789
e 534 807
e 534 809
e 534 836
e 534 839
e 534 854
e 534 876
e 534 878
e 534 887
e 534 907
e 534 929
e 534 937
e 534 943
e 534 945
e 534 947
e 534 989
e 534 998
e 535 588
e 535 589
e 535 608
e 535 626
e 535 633
e 535 634
e 535 637
e 535 656
e 535 676
e 535 688
e 535 727
e 535 740
e 535 769
e 535 774
e 535 810
e 535 812
e 535 820
e 535 822
e 535 826
e 535 828
e 535 829
e 535 833
e 535 840
e 535 855
e 535 864
e 535 886
e 535 889
e 535 901
e 535 905
e 535 915
e 535 928
e 535 931
e 535 935
e 535 942
e 535 950
e 535 963
e 535 964
e 535 970
e 535 973
e 535 974
e 535 975
e 535 977
e 536 538
e 536 546
e 536 550
e 536 557
e 536 563
e 536 567
e 536 572
e 536 575
e 536 579
e 536 592
e 536 601
e 536 620
e 536 636
e 536 645
e 536 650
e 536 669
e 536 685
e 536 689
e 536 690
e 536 702
e 536 705
e 536 708
e 536 709
e 536 711
e 536 716
e 536 726
e 536 728
e 536 733
e 536 754
e 536 755
e 536 757
e 536 802
e 536 804
e 536 820
e 536 830
e 536 831
e 536 843
e 536 850
e 536 858
e 536 859
e 536 860
e 536 863
e 536 868
e 536 875
e 536 879
e 536 890
e 536 894
e 536 895
e 536 912
e 536 914
e 536 919
e 536 924
e 536 927
e 536 933
e 536 934
e 536 937
e 536 938
e 536 940
e 536 941
e 536 953
e 536 963
e 536 964
e 536 971
e 536 972
e 536 991
e 537 542
e 537 543
e 537 547
e 537 565
e 537 586
e 537 602
e 537 615
e 537 620
e 537 624
e 537 634
e 537 648
e 537 649
e 537 650
e 537 651
e 537 688
e 537 695
e 537 720
e 537 739
e 537 742
e 537 754
e 537 760
e 537 781
e 537 783
e 537 799
e 537 803
e 537 807
e 537 810
e 537 811
e 537 817
e 537 827
e 537 834
e 537 837
e 537 851
e 537 865
e 537 880
e 537 898
e 537 916
e 537 929
e 537 953
e 537 962
e 537 968
e 537 979
e 538 540
e 538 545
e 538 567
e 538 570
e 538 571
e 538 587
e 538 596
e 538 606
e 538 610
e 538 637
e 538 642
e 538 652
e 538 656
e 538 657
e 538 671
e 538 689
e 538 692
e 538 698
e 538 714
e 538 716
e 538 730
e 538 735
e 538 756
e 538 759
e 538 777
e 538 827
e 538 833
e 538 844
e 538 853
e 538 856
e 538 863
e 538 866
e 538 870
e 538 871
e 538 891
e 538 895
e 538 909
e 538 914
e 538 931
e 538 935
e 538 939
e 538 949
e 538 950
e 538 969
e 538 983
e 538 985
e 538 990
e 538 995
e 538 997
e 539 543
e 539 545
e 539 562
e 539 575
e 539 615
e 539 620
e 539 622
e 539 625
e 539 630
e 539 635
e 539 645
e 539 660
e 539 675
e 539 685
e 539 693
e 539 715
e 539 718
e 539 730
e 539 733
e 539 752
e 539 756
e 539 770
e 539 789
e 539 791
e 539 800
e 539 803
e 539 809
e 539 810
e 539 821
e 539 827
e 539 835
e 539 838
e 539 853
e 539 856
e 539 861
e 539 865
e 539 872
e 539 878
e 539 896
e 539 923
e 539 934
e 539 935
e 539 950
e 539 961
e 539 979
e 539 983
e 539 991
e 539 998
e 540 541
e 540 543
e 540 544
e 540 550
e 540 566
e 540 572
e 540 577
e 540 579
e 540 582
e 540 598
e 540 607
e 540 613
e 540 616
e 540 618
e 540 620
e 540 629
e 540 653
e 540 657
e 540 670
e 540 673
e 540 681
e 540 698
e 540 711
e 540 721
e 540 722
e 540 728
e 540 730
e 540 746
e 540 759
e 540 770
e 540 773
e 540 779
e 540 791
e 540 801
e 540 817
e 540 825
e 540 853
e 540 863
e 540 867
e 540 873
e 540 881
e 540 900
e 540 908
e 540 920
e 540 926
e 540 952
e 540 958
e 540 961
e 540 962
e 540 970
e 540 990
e 541 543
e 541 548
e 541 556
e 541 567
e 541 583
e 541 587
e 541 604
e 541 608
e 541 613
e 541 632
e 541 641
e 541 651
e 541 658
e 541 666
e 541 676
e 541 679
e 541 697
e 541 701
e 541 702
e 541 711
e 541 720
e 541 726
e 541 749
e 541 754
e 541 764
e 541 771
e 541 775
e 541 800
e 541 806
e 541 813
e 541 819
e 541 828
e 541 833
e 541 834
e 541 837
e 541 841
e 541 854
e 541 867
e 541 872
e 541 877
e 541 881
e 541 887
e 541 892
e 541 896
e 541 914
e 541 921
e 541 942
e 541 960
e 541 965
e 541 966
e 541 971
e 541 973
e 541 978
e 541 993
e 542 552
e 542 562
e 542 569
e 542 576
e 542 585
e 542 587
e 542 616
e 542 639
e 542 643
e 542 658
e 542 662
e 542 679
e 542 689
e 542 697
e 542 715
e 542 716
e 542 721
e 542 731
e 542 736
e 542 759
e 542 767
e 542 780
e 542 794
e 542 800
e 542 808
e 542 810
e 542 817
e 542 836
e 542 839
e 542 844
e 542 852
e 542 879
e 542 886
e 542 892
e 542 912
e 542 915
e 542 924
e 542 927
e 542 934
e 542 943
e 542 955
e 542 958
e 542 969
e 542 982
e 542 986
e 542 989
e 542 993
e 542 1000
e 543 550
e 543 579
e 543 580
e 543 587
e 543 600
e 543 628
e 543 642
e 543 673
e 543 674
e 543 683
e 543 685
e 543 686
e 543 690
e 543 709
e 543 711
e 543 713
e 543 722
e 543 736
e 543 749
e 543 751
e 543 752
e 543 822
e 543 834
e 543 853
e 543 860
e 543 871
e 543 891
e 543 893
e 543 911
e 543 913
e 543 914
e 543 928
e 543 929
e 543 933
e 543 936
e 543 938
e 543 952
e 543 979
e 543 980
e 543 984
e 543 1000
e 544 545
e 544 549
e 544 563
e 544 566
e 544 574
e 544 576
e 544 585
e 544 589
e 544 612
e 544 618
e 544 621
e 544 638
e 544 683
e 544 710
e 544 711
e 544 730
e 544 734
e 544 739
e 544 742
e 544 748
e 544 787
e 544 789
e 544 800
e 544 804
e 544 806
e 544 822
e 544 827
e 544 830
e 544 843
e 544 844
e 544 845
e 544 853
e 544 859
e 544 864
e 544 877
e 544 878
e 544 900
e 544 902
e 544 913
e 544 918
e 544 921
e 544 934
e 544 940
e 544 942
e 544 945
e 544 952
e 544 964
e 544 975
e 544 978
e 544 981
e 544 986
e 544 998
e 545 548
e 545 565
e 545 567
e 545 586
e 545 591
e 545 604
e 545 608
e 545 614
e 545 622
e 545 637
e 545 640
e 545 646
e 545 652
e 545 657
e 545 672
e 545 675
e 545 707
e 545 721
e 545 732
e 545 739
e 545 745
e 545 753
e 545 759
e 545 772
e 545 776
e 545 780
e 545 795
e 545 819
e 545 840
e 545 861
e 545 862
e 545 870
e 545 877
e 545 885
e 545 898
e 545 899
e 545 901
e 545 911
e 545 913
e 545 917
e 545 922
e 545 936
e 545 938
e 545 941
e 545 945
e 545 955
e 545 964
e 545 967
e 546 551
e 546 557
e 546 563
e 546 565
e 546 571
e 546 579
e 546 596
e 546 603
e 546 611
e 546 622
e 546 629
e 546 634
e 546 696
e 546 717
e 546 729
e 546 733
e 546 734
e 546 743
e 546 764
e 546 767
e 546 774
e 546 783
e 546 789
e 546 790
e 546 800
e 546 801
e 546 806
e 546 807
e 546 815
e 546 837
e 546 890
e 546 914
e 546 923
e 546 938
e 546 942
e 546 944
e 546 955
e 546 963
e 546 970
e 546 975
e 546 988
e 547 548
e 547 552
e 547 560
e 547 579
e 547 584
e 547 588
e 547 608
e 547 612
e 547 618
e 547 624
e 547 632
e 547 633
e 547 643
e 547 647
e 547 687
e 547 689
e 547 694
e 547 697
e 547 707
e 547 715
e 547 732
e 547 735
e 547 750
e 547 757
e 547 766
e 547 776
e 547 816
e 547 826
e 547 831
e 547 840
e 547 860
e 547 879
e 547 883
e 547 894
e 547 895
e 547 899
e 547 904
e 547 905
e 547 918
e 547 929
e 547 930
e 547 939
e 547 942
e 547 943
e 547 955
e 547 961
e 547 987
e 547 995
e 547 996
e 548 564
e 548 566
e 548 594
e 548 597
e 548 606
e 548 608
e 548 629
e 548 639
e 548 653
e 548 671
e 548 682
e 548 696
e 548 698
e 548 699
e 548 700
e 548 707
e 548 725
e 548 748
e 548 757
e 548 766
e 548 772
e 548 795
e 548 820
e 548 827
e 548 830
e 548 831
e 548 843
e 548 844
e 548 878
e 548 886
e 548 898
e 548 904
e 548 908
e 548 909
e 548 911
e 548 915
e 548 918
e 548 928
e 548 933
e 548 938
e 548 948
e 548 949
e 548 965
e 548 968
e 548 975
e 548 976
e 548 989
e 548 991
e 549 551
e 549 583
e 549 599
e 549 602
e 549 606
e 549 659
e 549 660
e 549 661
e 549 663
e 549 716
e 549 741
e 549 747
e 549 758
e 549 766
e 549 772
e 549 778
e 549 784
e 549 790
e 549 795
e 549 797
e 549 808
e 549 819
e 549 827
e 549 830
e 549 832
e 549 855
e 549 859
e 549 861
e 549 867
e 549 872
e 549 881
e 549 884
e 549 885
e 549 906
e 549 913
e 549 929
e 549 943
e 549 946
e 549 957
e 549 962
e 549 963
e 549 972
e 549 995
e 550 555
e 550 566
e 550 571
e 550 587
e 550 605
e 550 616
e 550 638
e 550 646
e 550 649
e 550 650
e 550 659
e 550 672
e 550 700
e 550 708
e 550 731
e 550 752
e 550 758
e 550 803
e 550 807
e 550 812
e 550 814
e 550 815
e 550 848
e 550 863
e 550 880
e 550 888
e 550 892
e 550 925
e 550 927
e 550 946
e 550 956
e 550 964
e 550 965
e 550 969
e 550 975
e 550 977
e 550 991
e 551 557
e 551 568
e 551 574
e 551 577
e 551 585
e 551 595
e 551 625
e 551 635
e 551 641
e 551 642
e 551 647
e 551 649
e 551 650
e 551 659
e 551 681
e 551 685
e 551 686
e 551 689
e 551 694
e 551 709
e 551 712
e 551 715
e 551 717
e 551 731
e 551 769
e 551 771
e 551 774
e 551 776
e 551 778
e 551 812
e 551 816
e 551 818
e 551 820
e 551 881
e 551 899
e 551 908
e 551 915
e 551 923
e 551 926
e 551 946
e 551 949
e 551 951
e 551 974
e 551 986
e 552 554
e 552 564
e 552 586
e 552 590
e 552 593
e 552 609
e 552 617
e 552 624
e 552 630
e 552 641
e 552 655
e 552 663
e 552 665
e 552 675
e 552 676
e 552 687
e 552 700
e 552 708
e 552 717
e 552 719
e 552 739
e 552 740
e 552 743
e 552 762
e 552 768
e 552 790
e 552 792
e 552 814
e 552 822
e 552 823
e 552 826
e 552 830
e 552 845
e 552 846
e 552 851
e 552 878
e 552 890
e 552 891
e 552 896
e 552 911
e 552 924
e 552 931
e 552 935
e 552 947
e 552 957
e 552 959
e 552 970
e 552 976
e 552 982
e 552 985
e 553 563
e 553 567
e 553 571
e 553 573
e 553 586
e 553 612
e 553 618
e 553 619
e 553 633
e 553 642
e 553 653
e 553 654
e 553 657
e 553 664
e 553 665
e 553 680
e 553 685
e 553 734
e 553 739
e 553 742
e 553 750
e 553 761
e 553 772
e 553 776
e 553 794
e 553 821
e 553 835
e 553 847
e 553 866
e 553 867
e 553 875
e 553 876
e 553 878
e 553 881
e 553 905
e 553 936
e 553 941
e 553 946
e 553 953
e 553 957
e 553 968
e 553 978
e 553 999
e 554 562
e 554 606
e 554 612
e 554 613
e 554 616
e 554 623
e 554 626
e 554 628
e 554 631
e 554 642
e 554 657
e 554 659
e 554 664
e 554 667
e 554 674
e 554 691
e 554 714
e 554 732
e 554 737
e 554 744
e 554 754
e 554 764
e 554 765
e 554 766
e 554 769
e 554 773
e 554 781
e 554 792
e 554 816
e 554 824
e 554 826
e 554 860
e 554 873
e 554 876
e 554 878
e 554 879
e 554 880
e 554 892
e 554 894
e 554 923
e 554 924
e 554 932
e 554 945
e 554 948
e 554 981
e 554 988
e 555 558
e 555 587
e 555 590
e 555 620
e 555 627
e 555 630
e 555 635
e 555 637
e 555 639
e 555 645
e 555 664
e 555 672
e 555 676
e 555 749
e 555 758
e 555 759
e 555 779
e 555 780
e 555 809
e 555 822
e 555 831
e 555 848
e 555 853
e 555 858
e 555 863
e 555 880
e 555 885
e 555 888
e 555 891
e 555 896
e 555 898
e 555 901
e 555 914
e 555 926
e 555 933
e 555 974
e 555 980
e 555 981
e 555 992
e 556 570
e 556 579
e 556 600
e 556 607
e 556 608
e 556 618
e 556 620
e 556 623
e 556 626
e 556 627
e 556 638
e 556 639
e 556 645
e 556 658
e 556 664
e 556 675
e 556 677
e 556 685
e 556 687
e 556 697
e 556 708
e 556 713
e 556 714
e 556 716
e 556 717
e 556 733
e 556 783
e 556 786
e 556 787
e 556 788
e 556 801
e 556 816
e 556 820
e 556 827
e 556 831
e 556 836
e 556 865
e 556 884
e 556 900
e 556 909
e 556 920
e 556 922
e 556 930
e 556 943
e 556 944
e 556 952
e 556 965
e 556 968
e 556 969
e 556 970
e 556 973
e 556 985
e 556 990
e 556 996
e 556 997
e 556 998
e 557 580
e 557 585
e 557 589
e 557 611
e 557 619
e 557 632
e 557 634
e 557 639
e 557 643
e 557 646
e 557 654
e 557 670
e 557 679
e 557 696
e 557 701
e 557 714
e 557 736
e 557 750
e 557 757
e 557 760
e 557 783
e 557 786
e 557 788
e 557 792
e 557 797
e 557 800
e 557 804
e 557 806
e 557 811
e 557 818
e 557 825
e 557 844
e 557 853
e 557 855
e 557 856
e 557 862
e 557 878
e 557 886
e 557 887
e 557 890
e 557 900
e 557 908
e 557 911
e 557 916
e 557 932
e 557 933
e 557 943
e 557 944
e 557 950
e 557 978
e 557 980
e 557 985
e 557 987
e 557 993
e 557 997
e 557 998
e 558 563
e 558 571
e 558 598
e 558 631
e 558 637
e 558 642
e 558 643
e 558 652
e 558 659
e 558 663
e 558 672
e 558 680
e 558 683
e 558 693
e 558 705
e 558 709
e 558 714
e 558 729
e 558 730
e 558 752
e 558 754
e 558 776
e 558 780
e 558 792
e 558 808
e 558 809
e 558 810
e 558 811
e 558 814
e 558 885
e 558 889
e 558 897
e 558 900
e 558 904
e 558 926
e 558 928
e 558 932
e 558 936
e 558 945
e 558 948
e 558 960
e 558 966
e 558 986
e 558 995
e 559 566
e 559 573
e 559 601
e 559 617
e 559 620
e 559 628
e 559 639
e 559 645
e 559 647
e 559 649
e 559 662
e 559 664
e 559 694
e 559 713
e 559 717
e 559 731
e 559 742
e 559 745
e 559 749
e 559 751
e 559 756
e 559 759
e 559 779
e 559 790
e 559 792
e 559 795
e 559 806
e 559 807
e 559 811
e 559 814
e 559 827
e 559 834
e 559 863
e 559 877
e 559 904
e 559 909
e 559 925
e 559 929
e 559 936
e 559 943
e 559 952
e 559 953
e 559 959
e 559 968
e 559 978
e 559 988
e 559 994
e 559 996
e 559 1000
e 560 577
e 560 578
e 560 582
e 560 586
e 560 590
e 560 607
e 560 640
e 560 658
e 560 688
e 560 719
e 560 734
e 560 746
e 560 752
e 560 764
e 560 789
e 560 795
e 560 804
e 560 828
e 560 829
e 560 836
e 560 851
e 560 874
e 560 892
e 560 901
e 560 918
e 560 921
e 560 965
e 560 973
e 560 983
e 560 986
e 561 563
e 561 569
e 561 578
e 561 591
e 561 602
e 561 606
e 561 608
e 561 611
e 561 617
e 561 618
e 561 629
e 561 634
e 561 645
e 561 647
e 561 658
e 561 662
e 561 664
e 561 666
e 561 671
e 561 672
e 561 694
e 561 717
e 561 722
e 561 733
e 561 734
e 561 755
e 561 769
e 561 776
e 561 782
e 561 789
e 561 813
e 561 824
e 561 833
e 561 882
e 561 885
e 561 902
e 561 912
e 561 930
e 561 940
e 561 942
e 561 951
e 561 961
e 561 965
e 561 971
e 561 972
e 561 973
e 561 975
e 561 986
e 561 994
e 562 563
e 562 566
e 562 567
e 562 596
e 562 597
e 562 620
e 562 631
e 562 636
e 562 639
e 562 643
e 562 648
e 562 650
e 562 681
e 562 684
e 562 687
e 562 710
e 562 717
e 562 720
e 562 729
e 562 743
e 562 747
e 562 751
e 562 762
e 562 763
e 562 782
e 562 787
e 562 790
e 562 793
e 562 796
e 562 799
e 562 802
e 562 815
e 562 816
e 562 829
e 562 830
e 562 842
e 562 856
e 562 857
e 562 864
e 562 872
e 562 881
e 562 891
e 562 893
e 562 899
e 562 901
e 562 912
e 562 917
e 562 918
e 562 924
e 562 939
e 562 940
e 562 947
e 562 980
e 562 1000
e 563 564
e 563 578
e 563 579
e 563 617
e 563 618
e 563 621
e 563 629
e 563 649
e 563 663
e 563 668
e 563 672
e 563 681
e 563 687
e 563 712
e 563 725
e 563 730
e 563 734
e 563 753
e 563 756
e 563 764
e 563 765
e 563 785
e 563 832
e 563 837
e 563 868
e 563 872
e 563 880
e 563 881
e 563 882
e 563 885
e 563 897
e 563 898
e 563 908
e 563 910
e 563 936
e 563 942
e 563 953
e 563 981
e 563 982
e 563 983
e 563 989
e 563 991
e 563 995
e 563 997
e 564 568
e 564 570
e 564 581
e 564 593
e 564 618
e 564 644
e 564 658
e 564 664
e 564 670
e 564 672
e 564 683
e 564 696
e 564 714
e 564 720
e 564 727
e 564 732
e 564 747
e 564 752
e 564 757
e 564 766
e 564 790
e 564 796
e 564 801
e 564 802
e 564 805
e 564 817
e 564 838
e 564 847
e 564 855
e 564 869
e 564 888
e 564 889
e 564 890
e 564 902
e 564 925
e 564 926
e 564 939
e 564 941
e 564 969
e 564 982
e 565 575
e 565 580
e 565 583
e 565 590
e 565 598
e 565 600
e 565 602
e 565 603
e 565 605
e 565 607
e 565 610
e 565 617
e 565 637
e 565 639
e 565 645
e 565 671
e 565 678
e 565 691
e 565 693
e 565 696
e 565 699
e 565 704
e 565 710
e 565 731
e 565 737
e 565 757
e 565 768
e 565 772
e 565 781
e 565 786
e 565 790
e 565 813
e 565 817
e 565 820
e 565 821
e 565 827
e 565 834
e 565 860
e 565 864
e 565 867
e 565 880
e 565 883
e 565 890
e 565 899
e 565 900
e 565 903
e 565 904
e 565 916
e 565 940
e 565 950
e 565 970
e 565 983
e 565 989
e 566 575
e 566 576
e 566 586
e 566 591
e 566 599
e 566 613
e 566 624
e 566 636
e 566 640
e 566 647
e 566 674
e 566 691
e 566 694
e 566 714
e 566 721
e 566 729
e 566 742
e 566 762
e 566 765
e 566 767
e 566 781
e 566 782
e 566 795
e 566 797
e 566 811
e 566 824
e 566 835
e 566 836
e 566 846
e 566 848
e 566 849
e 566 853
e 566 889
e 566 898
e 566 904
e 566 915
e 566 923
e 566 929
e 566 937
e 566 942
e 566 949
e 566 952
e 566 972
e 566 981
e 567 568
e 567 588
e 567 607
e 567 618
e 567 627
e 567 629
e 567 637
e 567 651
e 567 698
e 567 702
e 567 734
e 567 735
e 567 744
e 567 751
e 567 755
e 567 768
e 567 785
e 567 810
e 567 833
e 567 835
e 567 838
e 567 883
e 567 910
e 567 929
e 567 931
e 567 938
e 567 943
e 567 944
e 567 952
e 567 989
e 567 995
e 567 996
e 568 586
e 568 590
e 568 603
e 568 604
e 568 605
e 568 619
e 568 623
e 568 661
e 568 662
e 568 677
e 568 681
e 568 717
e 568 723
e 568 733
e 568 735
e 568 738
e 568 739
e 568 743
e 568 755
e 568 762
e 568 773
e 568 779
e 568 803
e 568 807
e 568 818
e 568 819
e 568 822
e 568 826
e 568 831
e 568 852
e 568 857
e 568 865
e 568 867
e 568 894
e 568 901
e 568 906
e 568 909
e 568 918
e 568 928
e 568 938
e 568 963
e 568 969
e 568 972
e 568 984
e 568 991
e 568 996
e 569 585
e 569 594
e 569 610
e 569 623
e 569 627
e 569 628
e 569 653
e 569 684
e 569 690
e 569 693
e 569 699
e 569 711
e 569 729
e 569 747
e 569 750
e 569 757
e 569 768
e 569 770
e 569 773
e 569 781
e 569 798
e 569 810
e 569 811
e 569 825
e 569 835
e 569 840
e 569 846
e 569 867
e 569 872
e 569 886
e 569 889
e 569 902
e 569 918
e 569 928
e 569 935
e 569 940
e 569 948
e 569 955
e 569 972
e 569 978
e 570 572
e 570 584
e 570 610
e 570 611
e 570 626
e 570 627
e 570 654
e 570 669
e 570 707
e 570 737
e 570 740
e 570 753
e 570 754
e 570 763
e 570 785
e 570 791
e 570 801
e 570 805
e 570 806
e 570 813
e 570 816
e 570 820
e 570 823
e 570 834
e 570 842
e 570 851
e 570 855
e 570 856
e 570 883
e 570 913
e 570 922
e 570 926
e 570 929
e 570 942
e 570 943
e 570 946
e 570 950
e 570 959
e 570 972
e 570 975
e 570 989
e 570 993
e 571 601
e 571 605
e 571 607
e 571 609
e 571 612
e 571 625
e 571 631
e 571 644
e 571 645
e 571 648
e 571 662
e 571 669
e 571 670
e 571 679
e 571 718
e 571 719
e 571 731
e 571 752
e 571 753
e 571 754
e 571 765
e 571 766
e 571 787
e 571 806
e 571 829
e 571 841
e 571 844
e 571 859
e 571 869
e 571 874
e 571 882
e 571 893
e 571 901
e 571 923
e 571 930
e 571 932
e 571 940
e 571 941
e 571 949
e 571 983
e 571 994
e 572 622
e 572 643
e 572 648
e 572 660
e 572 661
e 572 668
e 572 677
e 572 680
e 572 685
e 572 701
e 572 703
e 572 707
e 572 711
e 572 712
e 572 746
e 572 747
e 572 786
e 572 794
e 572 807
e 572 817
e 572 819
e 572 828
e 572 830
e 572 831
e 572 850
e 572 853
e 572 865
e 572 892
e 572 894
e 572 904
e 572 922
e 572 923
e 572 927
e 572 944
e 572 971
e 573 581
e 573 586
e 573 641
e 573 652
e 573 653
e 573 654
e 573 665
e 573 666
e 573 703
e 573 706
e 573 711
e 573 720
e 573 736
e 573 737
e 573 738
e 573 757
e 573 759
e 573 783
e 573 789
e 573 792
e 573 797
e 573 800
e 573 804
e 573 809
e 573 816
e 573 825
e 573 826
e 573 827
e 573 837
e 573 848
e 573 853
e 573 872
e 573 883
e 573 892
e 573 904
e 573 907
e 573 917
e 573 938
e 573 944
e 573 947
e 573 948
e 573 961
e 573 984
e 573 987
e 573 993
e 573 997
e 574 580
e 574 605
e 574 606
e 574 608
e 574 609
e 574 612
e 574 614
e 574 620
e 574 652
e 574 677
e 574 678
e 574 686
e 574 693
e 574 696
e 574 701
e 574 710
e 574 713
e 574 716
e 574 722
e 574 723
e 574 724
e 574 730
e 574 735
e 574 737
e 574 743
e 574 744
e 574 757
e 574 771
e 574 786
e 574 803
e 574 824
e 574 825
e 574 833
e 574 843
e 574 844
e 574 863
e 574 870
e 574 871
e 574 872
e 574 894
e 574 904
e 574 906
e 574 911
e 574 932
e 574 936
e 574 938
e 574 940
e 574 945
e 574 957
e 574 958
e 574 970
e 574 978
e 574 982
e 574 990
e 575 584
e 575 598
e 575 604
e 575 632
e 575 633
e 575 649
e 575 653
e 575 663
e 575 679
e 575 690
e 575 740
e 575 756
e 575 759
e 575 763
e 575 765
e 575 770
e 575 776
e 575 780
e 575 787
e 575 790
e 575 792
e 575 808
e 575 809
e 575 810
e 575 822
e 575 833
e 575 836
e 575 838
e 575 845
e 575 849
e 575 855
e 575 856
e 575 871
e 575 875
e 575 881
e 575 889
e 575 891
e 575 895
e 575 901
e 575 903
e 575 919
e 575 923
e 575 924
e 575 941
e 575 947
e 575 963
e 575 964
e 575 975
e 575 984
e 575 1000
e 576 583
e 576 601
e 576 602
e 576 620
e 576 621
e 576 624
e 576 627
e 576 642
e 576 643
e 576 655
e 576 660
e 576 669
e 576 670
e 576 682
e 576 688
e 576 707
e 576 709
e 576 722
e 576 733
e 576 735
e 576 788
e 576 796
e 576 797
e 576 802
e 576 803
e 576 804
e 576 813
e 576 819
e 576 823
e 576 825
e 576 827
e 576 838
e 576 842
e 576 864
e 576 892
e 576 900
e 576 904
e 576 914
e 576 930
e 576 953
e 576 960
e 576 965
e 576 984
e 576 994
e 577 581
e 577 585
e 577 589
e 577 595
e 577 610
e 577 626
e 577 629
e 577 634
e 577 637
e 577 640
e 577 650
e 577 651
e 577 664
e 577 668
e 577 685
e 577 687
e 577 695
e 577 700
e 577 724
e 577 755
e 577 762
e 577 767
e 577 770
e 577 771
e 577 779
e 577 781
e 577 790
e 577 802
e 577 805
e 577 812
e 577 816
e 577 822
e 577 832
e 577 837
e 577 873
e 577 897
e 577 913
e 577 919
e 577 924
e 577 932
e 577 934
e 577 938
e 577 939
e 577 957
e 577 962
e 577 974
e 577 979
e 577 1000
e 578 581
e 578 583
e 578 616
e 578 631
e 578 634
e 578 653
e 578 657
e 578 658
e 578 660
e 578 661
e 578 664
e 578 685
e 578 722
e 578 755
e 578 767
e 578 793
e 578 809
e 578 820
e 578 829
e 578 838
e 578 841
e 578 849
e 578 851
e 578 854
e 578 864
e 578 877
e 578 879
e 578 881
e 578 883
e 578 901
e 578 909
e 578 929
e 578 930
e 578 934
e 578 953
e 578 970
e 578 984
e 578 986
e 578 992
e 579 586
e 579 596
e 579 602
e 579 606
e 579 613
e 579 615
e 579 620
e 579 621
e 579 627
e 579 634
e 579 639
e 579 651
e 579 654
e 579 660
e 579 661
e 579 666
e 579 672
e 579 674
e 579 682
e 579 685
e 579 686
e 579 714
e 579 732
e 579 733
e 579 757
e 579 762
e 579 773
e 579 777
e 579 790
e 579 792
e 579 794
e 579 808
e 579 809
e 579 810
e 579 811
e 579 812
e 579 817
e 579 823
e 579 833
e 579 839
e 579 842
e 579 865
e 579 875
e 579 880
e 579 881
e 579 892
e 579 901
e 579 911
e 579 921
e 579 932
e 579 943
e 579 958
e 579 962
e 579 970
e 579 997
e 580 603
e 580 614
e 580 622
e 580 636
e 580 640
e 580 663
e 580 667
e 580 674
e 580 689
e 580 698
e 580 715
e 580 717
e 580 730
e 580 741
e 580 743
e 580 774
e 580 779
e 580 784
e 580 794
e 580 797
e 580 798
e 580 800
e 580 815
e 580 824
e 580 840
e 580 842
e 580 849
e 580 854
e 580 864
e 580 866
e 580 873
e 580 882
e 580 896
e 580 898
e 580 909
e 580 919
e 580 943
e 580 946
e 580 948
e 580 949
e 580 976
e 580 978
e 580 981
e 581 583
e 581 608
e 581 631
e 581 639
e 581 650
e 581 699
e 581 726
e 581 743
e 581 746
e 581 747
e 581 749
e 581 750
e 581 776
e 581 797
e 581 803
e 581 810
e 581 817
e 581 824
e 581 842
e 581 865
e 581 872
e 581 875
e 581 879
e 581 894
e 581 898
e 581 918
e 581 946
e 581 956
e 581 974
e 581 986
e 581 987
e 581 988
e 581 994
e 582 594
e 582 607
e 582 625
e 582 628
e 582 630
e 582 631
e 582 632
e 582 634
e 582 636
e 582 639
e 582 646
e 582 651
e 582 653
e 582 659
e 582 684
e 582 690
e 582 729
e 582 730
e 582 737
e 582 748
e 582 751
e 582 753
e 582 766
e 582 774
e 582 780
e 582 801
e 582 818
e 582 820
e 582 840
e 582 847
e 582 849
e 582 882
e 582 888
e 582 893
e 582 909
e 582 924
e 582 927
e 582 950
e 582 959
e 582 960
e 582 963
e 582 973
e 582 985
e 582 987
e 583 601
e 583 605
e 583 631
e 583 634
e 583 654
e 583 657
e 583 663
e 583 675
e 583 683
e 583 686
e 583 698
e 583 717
e 583 728
e 583 739
e 583 758
e 583 773
e 583 788
e 583 790
e 583 805
e 583 821
e 583 822
e 583 831
e 583 833
e 583 880
e 583 891
e 583 911
e 583 917
e 583 949
e 583 962
e 583 982
e 583 986
e 583 992
e 584 596
e 584 604
e 584 611
e 584 648
e 584 656
e 584 660
e 584 669
e 584 673
e 584 691
e 584 718
e 584 732
e 584 737
e 584 748
e 584 764
e 584 772
e 584 776
e 584 788
e 584 790
e 584 797
e 584 810
e 584 834
e 584 852
e 584 861
e 584 873
e 584 882
e 584 896
e 584 904
e 584 924
e 584 933
e 584 934
e 584 942
e 584 944
e 584 945
e 584 948
e 584 966
e 584 985
e 585 598
e 585 606
e 585 614
e 585 627
e 585 637
e 585 641
e 585 654
e 585 677
e 585 683
e 585 701
e 585 714
e 585 716
e 585 748
e 585 759
e 585 763
e 585 764
e 585 773
e 585 778
e 585 788
e 585 792
e 585 805
e 585 812
e 585 813
e 585 818
e 585 821
e 585 838
e 585 855
e 585 875
e 585 891
e 585 903
e 585 917
e 585 921
e 585 936
e 585 940
e 585 942
e 585 960
e 585 965
e 585 975
e 585 986
e 585 990
e 585 996
e 586 595
e 586 623
e 586 624
e 586 625
e 586 638
e 586 659
e 586 660
e 586 671
e 586 693
e 586 722
e 586 726
e 586 740
e 586 745
e 586 764
e 586 781
e 586 810
e 586 812
e 586 820
e 586 831
e 586 835
e 586 842
e 586 853
e 586 865
e 586 868
e 586 893
e 586 922
e 586 934
e 586 969
e 586 989
e 586 991
e 586 996
e 587 601
e 587 603
e 587 615
e 587 628
e 587 629
e 587 635
e 587 647
e 587 649
e 587 654
e 587 668
e 587 676
e 587 677
e 587 700
e 587 704
e 587 713
e 587 723
e 587 727
e 587 757
e 587 763
e 587 769
e 587 776
e 587 792
e 587 823
e 587 824
e 587 836
e 587 837
e 587 852
e 587 857
e 587 863
e 587 871
e 587 904
e 587 917
e 587 932
e 587 936
e 587 947
e 587 952
e 587 953
e 587 963
e 587 975
e 587 977
e 587 979
e 587 983
e 588 606
e 588 616
e 588 647
e 588 661
e 588 668
e 588 670
e 588 678
e 588 688
e 588 691
e 588 710
e 588 713
e 588 714
e 588 722
e 588 723
e 588 725
e 588 741
e 588 750
e 588 776
e 588 784
e 588 790
e 588 795
e 588 798
e 588 816
e 588 832
e 588 843
e 588 847
e 588 859
e 588 869
e 588 892
e 588 895
e 588 896
e 588 917
e 588 922
e 588 928
e 588 937
e 588 938
e 588 959
e 588 968
e 588 974
e 588 979
e 588 981
e 588 982
e 588 997
e 588 999
e 589 597
e 589 616
e 589 618
e 589 629
e 589 632
e 589 633
e 589 641
e 589 654
e 589 666
e 589 681
e 589 682
e 589 694
e 589 723
e 589 735
e 589 736
e 589 802
e 589 810
e 589 824
e 589 825
e 589 826
e 589 846
e 589 850
e 589 865
e 589 879
e 589 883
e 589 887
e 589 910
e 589 912
e 589 913
e 589 916
e 589 917
e 589 938
e 589 939
e 589 942
e 589 954
e 589 963
e 589 968
e 589 971
e 589 984
e 590 595
e 590 600
e 590 601
e 590 614
e 590 632
e 590 658
e 590 667
e 590 676
e 590 682
e 590 699
e 590 708
e 590 720
e 590 726
e 590 742
e 590 764
e 590 775
e 590 777
e 590 785
e 590 788
e 590 789
e 590 791
e 590 806
e 590 813
e 590 817
e 590 839
e 590 849
e 590 873
e 590 879
e 590 881
e 590 887
e 590 903
e 590 924
e 590 926
e 590 928
e 590 940
e 590 954
e 590 974
e 590 977
e 590 980
e 590 988
e 590 994
e 590 1000
e 591 593
e 591 594
e 591 606
e 591 607
e 591 625
e 591 636
e 591 650
e 591 655
e 591 662
e 591 670
e 591 676
e 591 693
e 591 703
e 591 741
e 591 742
e 591 744
e 591 751
e 591 765
e 591 792
e 591 809
e 591 826
e 591 851
e 591 873
e 591 880
e 591 910
e 591 912
e 591 932
e 591 934
e 591 943
e 591 956
e 591 966
e 591 983
e 591 1000
e 592 617
e 592 658
e 592 659
e 592 664
e 592 670
e 592 672
e 592 687
e 592 690
e 592 692
e 592 704
e 592 710
e 592 711
e 592 724
e 592 745
e 592 747
e 592 749
e 592 754
e 592 762
e 592 765
e 592 770
e 592 792
e 592 803
e 592 850
e 592 851
e 592 854
e 592 864
e 592 871
e 592 877
e 592 887
e 592 898
e 592 904
e 592 911
e 592 913
e 592 931
e 592 935
e 592 946
e 592 948
e 592 955
e 592 991
e 593 597
e 593 614
e 593 628
e 593 642
e 593 653
e 593 654
e 593 657
e 593 658
e 593 664
e 593 679
e 593 685
e 593 686
e 593 699
e 593 707
e 593 741
e 593 794
e 593 799
e 593 802
e 593 803
e 593 811
e 593 823
e 593 832
e 593 867
e 593 870
e 593 871
e 593 872
e 593 883
e 593 893
e 593 897
e 593 921
e 593 936
e 593 957
e 593 976
e 594 605
e 594 609
e 594 626
e 594 633
e 594 655
e 594 674
e 594 686
e 594 691
e 594 698
e 594 699
e 594 713
e 594 715
e 594 729
e 594 735
e 594 763
e 594 798
e 594 854
e 594 855
e 594 856
e 594 864
e 594 870
e 594 883
e 594 889
e 594 895
e 594 896
e 594 900
e 594 912
e 594 913
e 594 940
e 594 944
e 594 948
e 594 966
e 594 967
e 594 973
e 594 977
e 594 980
e 595 610
e 595 619
e 595 622
e 595 628
e 595 629
e 595 638
e 595 650
e 595 672
e 595 683
e 595 689
e 595 694
e 595 739
e 595 743
e 595 765
e 595 786
e 595 797
e 595 800
e 595 804
e 595 809
e 595 822
e 595 824
e 595 828
e 595 840
e 595 853
e 595 855
e 595 866
e 595 883
e 595 895
e 595 896
e 595 897
e 595 900
e 595 909
e 595 926
e 595 933
e 595 967
e 595 974
e 595 984
e 595 993
e 595 996
e 596 610
e 596 616
e 596 623
e 596 629
e 596 648
e 596 659
e 596 669
e 596 681
e 596 691
e 596 709
e 596 710
e 596 729
e 596 741
e 596 748
e 596 751
e 596 758
e 596 761
e 596 768
e 596 817
e 596 819
e 596 832
e 596 848
e 596 853
e 596 854
e 596 858
e 596 861
e 596 865
e 596 872
e 596 887
e 596 893
e 596 898
e 596 944
e 596 948
e 596 966
e 596 968
e 596 971
e 596 982
e 596 991
e 596 994
e 596 996
e 597 609
e 597 610
e 597 633
e 597 652
e 597 656
e 597 657
e 597 658
e 597 674
e 597 680
e 597 696
e 597 726
e 597 732
e 597 735
e 597 739
e 597 741
e 597 745
e 597 746
e 597 754
e 597 758
e 597 765
e 597 778
e 597 780
e 597 782
e 597 786
e 597 793
e 597 817
e 597 845
e 597 847
e 597 850
e 597 882
e 597 892
e 597 907
e 597 916
e 597 924
e 597 941
e 597 974
e 597 976
e 597 981
e 598 599
e 598 606
e 598 612
e 598 617
e 598 637
e 598 653
e 598 663
e 598 667
e 598 668
e 598 687
e 598 692
e 598 694
e 598 705
e 598 711
e 598 736
e 598 745
e 598 751
e 598 755
e 598 766
e 598 778
e 598 779
e 598 783
e 598 793
e 598 803
e 598 811
e 598 820
e 598 821
e 598 828
e 598 835
e 598 837
e 598 846
e 598 852
e 598 855
e 598 865
e 598 869
e 598 874
e 598 880
e 598 905
e 598 920
e 598 922
e 598 945
e 598 969
e 598 971
e 598 975
e 598 981
e 598 988
e 598 1000
e 599 614
e 599 615
e 599 628
e 599 634
e 599 643
e 599 653
e 599 659
e 599 660
e 599 667
e 599 677
e 599 684
e 599 690
e 599 698
e 599 702
e 599 704
e 599 710
e 599 714
e 599 728
e 599 736
e 599 740
e 599 748
e 599 755
e 599 758
e 599 759
e 599 762
e 599 767
e 599 776
e 599 784
e 599 792
e 599 809
e 599 835
e 599 853
e 599 867
e 599 872
e 599 874
e 599 877
e 599 897
e 599 921
e 599 925
e 599 926
e 599 933
e 599 934
e 599 938
e 599 940
e 599 943
e 599 969
e 599 974
e 599 983
e 599 986
e 599 990
e 599 994
e 599 998
e 600 606
e 600 608
e 600 613
e 600 623
e 600 626
e 600 628
e 600 631
e 600 669
e 600 686
e 600 690
e 600 691
e 600 697
e 600 704
e 600 705
e 600 720
e 600 726
e 600 785
e 600 795
e 600 798
e 600 801
e 600 810
e 600 823
e 600 825
e 600 826
e 600 848
e 600 872
e 600 903
e 600 914
e 600 920
e 600 943
e 600 951
e 600 953
e 600 960
e 600 965
e 600 972
e 600 977
e 600 982
e 600 983
e 600 992
e 600 993
e 601 602
e 601 613
e 601 618
e 601 627
e 601 632
e 601 634
e 601 635
e 601 646
e 601 650
e 601 655
e 601 667
e 601 671
e 601 684
e 601 692
e 601 697
e 601 711
e 601 719
e 601 745
e 601 749
e 601 773
e 601 780
e 601 782
e 601 795
e 601 796
e 601 803
e 601 804
e 601 805
e 601 808
e 601 819
e 601 825
e 601 826
e 601 834
e 601 865
e 601 872
e 601 876
e 601 878
e 601 889
e 601 911
e 601 915
e 601 917
e 601 942
e 601 949
e 601 951
e 601 954
e 601 990
e 601 996
e 602 628
e 602 650
e 602 652
e 602 655
e 602 667
e 602 669
e 602 690
e 602 707
e 602 729
e 602 733
e 602 745
e 602 766
e 602 779
e 602 795
e 602 797
e 602 798
e 602 827
e 602 839
e 602 853
e 602 855
e 602 865
e 602 880
e 602 885
e 602 907
e 602 913
e 602 918
e 602 948
e 602 952
e 602 960
e 602 962
e 602 991
e 602 995
e 602 996
e 603 621
e 603 628
e 603 630
e 603 647
e 603 652
e 603 672
e 603 680
e 603 688
e 603 695
e 603 697
e 603 699
e 603 705
e 603 722
e 603 733
e 603 737
e 603 745
e 603 750
e 603 752
e 603 770
e 603 772
e 603 783
e 603 802
e 603 806
e 603 811
e 603 813
e 603 819
e 603 824
e 603 830
e 603 843
e 603 847
e 603 854
e 603 866
e 603 872
e 603 875
e 603 879
e 603 889
e 603 892
e 603 894
e 603 897
e 603 898
e 603 905
e 603 914
e 603 915
e 603 924
e 603 948
e 603 978
e 603 982
e 603 984
e 603 1000
e 604 618
e 604 621
e 604 631
e 604 640
e 604 650
e 604 664
e 604 680
e 604 682
e 604 703
e 604 718
e 604 725
e 604 731
e 604 735
e 604 752
e 604 767
e 604 772
e 604 774
e 604 780
e 604 791
e 604 807
e 604 808
e 604 813
e 604 824
e 604 835
e 604 836
e 604 859
e 604 866
e 604 871
e 604 898
e 604 916
e 604 929
e 604 945
e 604 947
e 604 954
e 604 964
e 604 970
e 604 973
e 604 996
e 604 998
e 605 609
e 605 616
e 605 619
e 605 622
e 605 635
e 605 640
e 605 654
e 605 655
e 605 657
e 605 668
e 605 671
e 605 689
e 605 699
e 605 702
e 605 706
e 605 717
e 605 727
e 605 737
e 605 743
e 605 748
e 605 752
e 605 754
e 605 768
e 605 778
e 605 799
e 605 801
e 605 810
e 605 824
e 605 836
e 605 848
e 605 851
e 605 865
e 605 866
e 605 867
e 605 877
e 605 881
e 605 903
e 605 907
e 605 908
e 605 944
e 605 947
e 605 961
e 605 966
e 605 969
e 605 974
e 605 978
e 605 984
e 606 649
e 606 651
e 606 662
e 606 676
e 606 684
e 606 692
e 606 702
e 606 712
e 606 739
e 606 752
e 606 783
e 606 808
e 606 811
e 606 817
e 606 823
e 606 843
e 606 861
e 606 865
e 606 866
e 606 906
e 606 923
e 606 930
e 606 950
e 606 964
e 606 971
e 606 981
e 606 985
e 607 609
e 607 617
e 607 619
e 607 640
e 607 666
e 607 678
e 607 692
e 607 713
e 607 715
e 607 738
e 607 744
e 607 752
e 607 775
e 607 791
e 607 799
e 607 807
e 607 810
e 607 820
e 607 821
e 607 823
e 607 825
e 607 831
e 607 836
e 607 848
e 607 855
e 607 887
e 607 891
e 607 916
e 607 920
e 607 927
e 607 939
e 607 940
e 607 955
e 607 961
e 607 962
e 607 964
e 607 991
e 607 992
e 608 610
e 608 612
e 608 616
e 608 617
e 608 618
e 608 638
e 608 648
e 608 651
e 608 654
e 608 657
e 608 676
e 608 693
e 608 696
e 608 698
e 608 707
e 608 708
e 608 730
e 608 731
e 608 733
e 608 736
e 608 741
e 608 763
e 608 769
e 608 780
e 608 803
e 608 822
e 608 824
e 608 831
e 608 834
e 608 848
e 608 854
e 608 866
e 608 872
e 608 878
e 608 881
e 608 899
e 608 917
e 608 951
e 608 960
e 608 961
e 608 967
e 608 982
e 608 994
e 609 615
e 609 628
e 609 641
e 609 658
e 609 661
e 609 674
e 609 677
e 609 679
e 609 687
e 609 701
e 609 709
e 609 714
e 609 718
e 609 722
e 609 726
e 609 729
e 609 732
e 609 733
e 609 737
e 609 768
e 609 777
e 609 786
e 609 802
e 609 809
e 609 815
e 609 816
e 609 843
e 609 850
e 609 875
e 609 876
e 609 896
e 609 898
e 609 905
e 609 908
e 609 913
e 609 916
e 609 930
e 609 943
e 609 956
e 609 963
e 609 972
e 609 973
e 609 977
e 609 987
e 610 612
e 610 615
e 610 616
e 610 625
e 610 647
e 610 662
e 610 674
e 610 681
e 610 695
e 610 697
e 610 724
e 610 728
e 610 756
e 610 761
e 610 764
e 610 774
e 610 808
e 610 821
e 610 826
e 610 829
e 610 834
e 610 837
e 610 840
e 610 844
e 610 859
e 610 869
e 610 877
e 610 879
e 610 893
e 610 899
e 610 902
e 610 908
e 610 913
e 610 917
e 610 924
e 610 925
e 610 954
e 610 957
e 610 978
e 610 982
e 611 615
e 611 619
e 611 636
e 611 657
e 611 664
e 611 677
e 611 681
e 611 690
e 611 691
e 611 720
e 611 727
e 611 730
e 611 738
e 611 745
e 611 746
e 611 752
e 611 763
e 611 764
e 611 766
e 611 789
e 611 818
e 611 820
e 611 823
e 611 838
e 611 854
e 611 873
e 611 875
e 611 878
e 611 880
e 611 889
e 611 912
e 611 920
e 611 926
e 611 969
e 612 613
e 612 614
e 612 641
e 612 645
e 612 661
e 612 669
e 612 675
e 612 676
e 612 677
e 612 682
e 612 718
e 612 721
e 612 723
e 612 732
e 612 733
e 612 740
e 612 741
e 612 743
e 612 744
e 612 773
e 612 775
e 612 778
e 612 785
e 612 811
e 612 812
e 612 823
e 612 825
e 612 836
e 612 856
e 612 859
e 612 867
e 612 868
e 612 876
e 612 897
e 612 901
e 612 905
e 612 916
e 612 920
e 612 922
e 612 934
e 612 964
e 612 968
e 612 973
e 612 992
e 612 994
e 613 623
e 613 626
e 613 652
e 613 663
e 613 668
e 613 670
e 613 678
e 613 688
e 613 706
e 613 713
e 613 725
e 613 746
e 613 749
e 613 751
e 613 776
e 613 789
e 613 793
e 613 798
e 613 818
e 613 819
e 613 856
e 613 859
e 613 887
e 613 889
e 613 890
e 613 893
e 613 903
e 613 914
e 613 918
e 613 921
e 613 927
e 613 931
e 613 940
e 613 943
e 613 978
e 614 625
e 614 626
e 614 643
e 614 653
e 614 672
e 614 678
e 614 692
e 614 714
e 614 734
e 614 738
e 614 755
e 614 764
e 614 776
e 614 779
e 614 781
e 614 805
e 614 812
e 614 825
e 614 849
e 614 851
e 614 854
e 614 867
e 614 880
e 614 902
e 614 917
e 614 919
e 614 927
e 614 948
e 614 953
e 614 963
e 614 975
e 614 984
e 614 988
e 614 1000
e 615 618
e 615 620
e 615 625
e 615 650
e 615 667
e 615 670
e 615 672
e 615 675
e 615 682
e 615 683
e 615 685
e 615 687
e 615 696
e 615 699
e 615 711
e 615 716
e 615 721
e 615 736
e 615 738
e 615 742
e 615 748
e 615 754
e 615 764
e 615 773
e 615 788
e 615 816
e 615 817
e 615 819
e 615 854
e 615 860
e 615 867
e 615 885
e 615 894
e 615 896
e 615 902
e 615 921
e 615 940
e 615 941
e 615 946
e 615 949
e 615 972
e 615 981
e 615 998
e 615 999
e 616 630
e 616 632
e 616 633
e 616 645
e 616 647
e 616 651
e 616 665
e 616 673
e 616 676
e 616 680
e 616 695
e 616 696
e 616 697
e 616 744
e 616 749
e 616 760
e 616 770
e 616 782
e 616 785
e 616 786
e 616 788
e 616 795
e 616 796
e 616 805
e 616 833
e 616 834
e 616 852
e 616 858
e 616 864
e 616 872
e 616 876
e 616 880
e 616 890
e 616 892
e 616 898
e 616 912
e 616 924
e 616 930
e 616 943
e 616 963
e 616 965
e 616 969
e 616 973
e 616 982
e 616 995
e 617 645
e 617 647
e 617 669
e 617 676
e 617 680
e 617 684
e 617 685
e 617 710
e 617 715
e 617 717
e 617 726
e 617 730
e 617 746
e 617 750
e 617 767
e 617 773
e 617 778
e 617 787
e 617 793
e 617 795
e 617 810
e 617 814
e 617 834
e 617 850
e 617 852
e 617 867
e 617 876
e 617 880
e 617 882
e 617 900
e 617 926
e 617 935
e 617 939
e 617 945
e 617 954
e 617 978
e 617 985
e 617 986
e 617 988
e 618 674
e 618 685
e 618 710
e 618 713
e 618 717
e 618 720
e 618 725
e 618 728
e 618 729
e 618 732
e 618 773
e 618 787
e 618 788
e 618 798
e 618 811
e 618 825
e 618 829
e 618 830
e 618 850
e 618 853
e 618 856
e 618 858
e 618 865
e 618 868
e 618 878
e 618 879
e 618 894
e 618 905
e 618 911
e 618 913
e 618 929
e 618 931
e 618 941
e 618 943
e 618 950
e 618 955
e 618 968
e 618 975
e 618 995
e 619 627
e 619 667
e 619 673
e 619 675
e 619 677
e 619 690
e 619 726
e 619 732
e 619 759
e 619 762
e 619 770
e 619 772
e 619 784
e 619 785
e 619 786
e 619 801
e 619 804
e 619 814
e 619 815
e 619 823
e 619 826
e 619 827
e 619 841
e 619 856
e 619 862
e 619 867
e 619 872
e 619 878
e 619 896
e 619 897
e 619 925
e 619 926
e 619 927
e 619 928
e 619 944
e 619 970
e 619 981
e 619 991
e 620 629
e 620 647
e 620 659
e 620 668
e 620 672
e 620 695
e 620 699
e 620 705
e 620 727
e 620 737
e 620 762
e 620 765
e 620 769
e 620 770
e 620 771
e 620 779
e 620 795
e 620 805
e 620 808
e 620 814
e 620 817
e 620 819
e 620 821
e 620 838
e 620 850
e 620 855
e 620 863
e 620 864
e 620 868
e 620 876
e 620 892
e 620 902
e 620 914
e 620 929
e 620 955
e 620 971
e 620 982
e 620 985
e 620 996
e 621 624
e 621 633
e 621 635
e 621 640
e 621 644
e 621 659
e 621 661
e 621 663
e 621 666
e 621 676
e 621 696
e 621 700
e 621 705
e 621 722
e 621 731
e 621 747
e 621 758
e 621 795
e 621 816
e 621 822
e 621 844
e 621 849
e 621 857
e 621 858
e 621 862
e 621 870
e 621 886
e 621 887
e 621 898
e 621 935
e 621 983
e 621 995
e 622 641
e 622 655
e 622 687
e 622 690
e 622 694
e 622 701
e 622 704
e 622 705
e 622 707
e 622 709
e 622 715
e 622 724
e 622 735
e 622 758
e 622 763
e 622 769
e 622 770
e 622 779
e 622 783
e 622 786
e 622 794
e 622 802
e 622 811
e 622 823
e 622 826
e 622 836
e 622 847
e 622 861
e 622 878
e 622 895
e 622 909
e 622 910
e 622 931
e 622 939
e 622 941
e 622 945
e 622 951
e 622 991
e 623 631
e 623 646
e 623 650
e 623 653
e 623 657
e 623 678
e 623 680
e 623 690
e 623 701
e 623 725
e 623 738
e 623 745
e 623 753
e 623 770
e 623 780
e 623 782
e 623 786
e 623 797
e 623 799
e 623 802
e 623 806
e 623 807
e 623 818
e 623 826
e 623 828
e 623 835
e 623 846
e 623 850
e 623 852
e 623 860
e 623 874
e 623 891
e 623 907
e 623 914
e 623 924
e 623 945
e 623 961
e 623 963
e 623 968
e 623 972
e 623 977
e 623 980
e 623 981
e 623 987
e 623 990
e 624 626
e 624 627
e 624 643
e 624 649
e 624 650
e 624 652
e 624 662
e 624 678
e 624 690
e 624 692
e 624 697
e 624 700
e 624 716
e 624 730
e 624 738
e 624 740
e 624 754
e 624 755
e 624 762
e 624 785
e 624 786
e 624 790
e 624 793
e 624 799
e 624 803
e 624 826
e 624 828
e 624 832
e 624 841
e 624 843
e 624 851
e 624 865
e 624 875
e 624 880
e 624 906
e 624 955
e 624 963
e 624 968
e 624 969
e 624 973
e 624 981
e 624 988
e 624 996
e 624 997
e 625 637
e 625 638
e 625 640
e 625 649
e 625 659
e 625 660
e 625 661
e 625 687
e 625 690
e 625 691
e 625 716
e 625 718
e 625 728
e 625 757
e 625 758
e 625 771
e 625 779
e 625 784
e 625 786
e 625 790
e 625 808
e 625 810
e 625 812
e 625 816
e 625 819
e 625 831
e 625 832
e 625 837
e 625 840
e 625 853
e 625 854
e 625 883
e 625 888
e 625 921
e 625 928
e 625 930
e 625 940
e 625 959
e 625 962
e 625 988
e 625 998
e 626 629
e 626 630
e 626 639
e 626 647
e 626 649
e 626 652
e 626 655
e 626 704
e 626 730
e 626 733
e 626 735
e 626 741
e 626 758
e 626 762
e 626 771
e 626 773
e 626 787
e 626 792
e 626 800
e 626 809
e 626 810
e 626 835
e 626 852
e 626 855
e 626 861
e 626 873
e 626 890
e 626 895
e 626 904
e 626 911
e 626 927
e 626 933
e 626 963
e 626 971
e 626 974
e 626 975
e 626 987
e 626 991
e 626 999
e 627 659
e 627 661
e 627 674
e 627 690
e 627 703
e 627 712
e 627 723
e 627 735
e 627 743
e 627 745
e 627 749
e 627 761
e 627 771
e 627 786
e 627 789
e 627 798
e 627 817
e 627 827
e 627 837
e 627 844
e 627 925
e 627 948
e 627 950
e 627 954
e 627 964
e 627 976
e 627 977
e 627 980
e 627 982
e 627 986
e 628 632
e 628 639
e 628 647
e 628 650
e 628 656
e 628 657
e 628 671
e 628 688
e 628 706
e 628 717
e 628 731
e 628 738
e 628 749
e 628 765
e 628 780
e 628 783
e 628 794
e 628 796
e 628 806
e 628 809
e 628 816
e 628 817
e 628 826
e 628 854
e 628 868
e 628 874
e 628 881
e 628 900
e 628 928
e 628 931
e 628 934
e 628 942
e 628 946
e 628 952
e 628 960
e 628 972
e 629 641
e 629 673
e 629 676
e 629 678
e 629 704
e 629 713
e 629 715
e 629 721
e 629 744
e 629 769
e 629 783
e 629 797
e 629 809
e 629 837
e 629 841
e 629 855
e 629 857
e 629 858
e 629 864
e 629 870
e 629 873
e 629 874
e 629 888
e 629 903
e 629 938
e 629 948
e 629 950
e 629 960
e 629 972
e 629 987
e 629 990
e 630 634
e 630 635
e 630 644
e 630 665
e 630 676
e 630 684
e 630 690
e 630 702
e 630 711
e 630 732
e 630 781
e 630 820
e 630 831
e 630 849
e 630 874
e 630 884
e 630 905
e 630 910
e 630 912
e 630 916
e 630 949
e 630 950
e 630 952
e 630 958
e 630 964
e 630 987
e 630 997
e 631 652
e 631 653
e 631 654
e 631 667
e 631 681
e 631 686
e 631 713
e 631 715
e 631 745
e 631 749
e 631 766
e 631 777
e 631 780
e 631 792
e 631 811
e 631 826
e 631 833
e 631 837
e 631 866
e 631 870
e 631 874
e 631 888
e 631 958
e 631 964
e 631 987
e 631 991
e 631 996
e 632 633
e 632 640
e 632 664
e 632 685
e 632 697
e 632 706
e 632 716
e 632 719
e 632 737
e 632 757
e 632 788
e 632 794
e 632 804
e 632 809
e 632 828
e 632 829
e 632 833
e 632 838
e 632 839
e 632 847
e 632 853
e 632 868
e 632 880
e 632 882
e 632 884
e 632 889
e 632 890
e 632 899
e 632 904
e 632 905
e 632 913
e 632 948
e 632 956
e 632 957
e 632 960
e 632 961
e 632 973
e 632 983
e 632 986
e 632 990
e 632 996
e 632 998
e 633 638
e 633 639
e 633 646
e 633 649
e 633 666
e 633 667
e 633 674
e 633 675
e 633 683
e 633 687
e 633 727
e 633 736
e 633 738
e 633 740
e 633 762
e 633 788
e 633 800
e 633 806
e 633 807
e 633 814
e 633 825
e 633 828
e 633 834
e 633 847
e 633 873
e 633 875
e 633 879
e 633 888
e 633 911
e 633 930
e 633 932
e 633 951
e 633 958
e 634 645
e 634 646
e 634 647
e 634 663
e 634 671
e 634 681
e 634 696
e 634 702
e 634 722
e 634 723
e 634 724
e 634 745
e 634 759
e 634 762
e 634 772
e 634 779
e 634 783
e 634 786
e 634 789
e 634 795
e 634 796
e 634 818
e 634 839
e 634 842
e 634 846
e 634 848
e 634 866
e 634 867
e 634 869
e 634 881
e 634 909
e 634 916
e 634 921
e 634 930
e 634 947
e 634 953
e 634 957
e 634 965
e 634 973
e 634 986
e 635 642
e 635 651
e 635 659
e 635 666
e 635 699
e 635 707
e 635 708
e 635 735
e 635 751
e 635 752
e 635 756
e 635 760
e 635 771
e 635 776
e 635 779
e 635 785
e 635 786
e 635 791
e 635 794
e 635 797
e 635 800
e 635 831
e 635 855
e 635 861
e 635 867
e 635 884
e 635 891
e 635 893
e 635 894
e 635 909
e 635 919
e 635 924
e 635 942
e 635 957
e 635 971
e 635 972
e 635 980
e 635 984
e 635 992
e 635 993
e 636 637
e 636 638
e 636 642
e 636 645
e 636 652
e 636 653
e 636 657
e 636 660
e 636 661
e 636 664
e 636 679
e 636 709
e 636 715
e 636 720
e 636 737
e 636 743
e 636 748
e 636 757
e 636 766
e 636 798
e 636 806
e 636 817
e 636 827
e 636 828
e 636 853
e 636 856
e 636 862
e 636 866
e 636 876
e 636 884
e 636 898
e 636 900
e 636 912
e 636 919
e 636 946
e 636 949
e 636 961
e 636 967
e 636 968
e 636 971
e 636 991
e 636 997
e 637 641
e 637 645
e 637 648
e 637 650
e 637 656
e 637 668
e 637 684
e 637 691
e 637 708
e 637 710
e 637 719
e 637 725
e 637 746
e 637 749
e 637 758
e 637 765
e 637 773
e 637 783
e 637 786
e 637 789
e 637 827
e 637 834
e 637 838
e 637 839
e 637 846
e 637 856
e 637 863
e 637 865
e 637 875
e 637 877
e 637 895
e 637 904
e 637 916
e 637 919
e 637 929
e 637 938
e 637 943
e 637 968
e 637 970
e 637 980
e 637 994
e 637 997
e 638 655
e 638 667
e 638 673
e 638 675
e 638 686
e 638 715
e 638 730
e 638 733
e 638 746
e 638 759
e 638 763
e 638 769
e 638 773
e 638 775
e 638 780
e 638 787
e 638 794
e 638 809
e 638 816
e 638 832
e 638 834
e 638 849
e 638 865
e 638 875
e 638 888
e 638 897
e 638 899
e 638 909
e 638 912
e 638 913
e 638 914
e 638 930
e 638 938
e 638 941
e 638 973
e 638 975
e 638 977
e 638 991
e 638 995
e 638 999
e 638 1000
e 639 641
e 639 645
e 639 660
e 639 687
e 639 693
e 639 705
e 639 711
e 639 713
e 639 717
e 639 723
e 639 734
e 639 742
e 639 752
e 639 757
e 639 765
e 639 791
e 639 795
e 639 805
e 639 813
e 639 826
e 639 827
e 639 835
e 639 837
e 639 853
e 639 855
e 639 865
e 639 869
e 639 870
e 639 885
e 639 886
e 639 904
e 639 907
e 639 916
e 639 919
e 639 926
e 639 928
e 639 953
e 639 961
e 639 964
e 639 965
e 639 973
e 639 976
e 639 978
e 639 990
e 639 992
e 639 995
e 640 658
e 640 668
e 640 677
e 640 681
e 640 692
e 640 694
e 640 722
e 640 746
e 640 760
e 640 768
e 640 770
e 640 772
e 640 775
e 640 810
e 640 817
e 640 835
e 640 838
e 640 844
e 640 848
e 640 858
e 640 870
e 640 871
e 640 882
e 640 884
e 640 888
e 640 890
e 640 908
e 640 909
e 640 916
e 640 927
e 640 932
e 640 938
e 640 940
e 640 942
e 640 948
e 640 953
e 640 960
e 640 971
e 641 647
e 641 649
e 641 665
e 641 674
e 641 706
e 641 718
e 641 723
e 641 730
e 641 731
e 641 767
e 641 786
e 641 794
e 641 795
e 641 799
e 641 804
e 641 889
e 641 891
e 641 894
e 641 895
e 641 901
e 641 912
e 641 925
e 641 928
e 641 932
e 641 935
e 641 945
e 641 946
e 641 947
e 641 975
e 641 991
e 641 994
e 641 1000
e 642 651
e 642 652
e 642 665
e 642 698
e 642 744
e 642 751
e 642 766
e 642 772
e 642 773
e 642 781
e 642 795
e 642 811
e 642 820
e 642 834
e 642 844
e 642 849
e 642 854
e 642 868
e 642 876
e 642 889
e 642 901
e 642 907
e 642 920
e 642 929
e 642 941
e 642 945
e 642 967
e 642 975
e 642 979
e 642 982
e 642 985
e 642 987
e 642 988
e 642 992
e 642 993
e 643 648
e 643 654
e 643 690
e 643 710
e 643 720
e 643 726
e 643 755
e 643 758
e 643 761
e 643 764
e 643 775
e 643 780
e 643 797
e 643 799
e 643 800
e 643 809
e 643 813
e 643 831
e 643 849
e 643 857
e 643 858
e 643 889
e 643 907
e 643 915
e 643 956
e 643 976
e 643 998
e 643 999
e 644 667
e 644 670
e 644 671
e 644 679
e 644 689
e 644 708
e 644 718
e 644 735
e 644 736
e 644 744
e 644 747
e 644 750
e 644 766
e 644 770
e 644 777
e 644 789
e 644 803
e 644 824
e 644 838
e 644 847
e 644 863
e 644 873
e 644 909
e 644 915
e 644 953
e 644 956
e 644 966
e 644 969
e 644 981
e 645 653
e 645 664
e 645 677
e 645 682
e 645 691
e 645 692
e 645 705
e 645 708
e 645 723
e 645 724
e 645 732
e 645 734
e 645 739
e 645 742
e 645 744
e 645 747
e 645 749
e 645 753
e 645 757
e 645 771
e 645 777
e 645 780
e 645 785
e 645 786
e 645 810
e 645 814
e 645 817
e 645 818
e 645 823
e 645 824
e 645 841
e 645 852
e 645 865
e 645 882
e 645 889
e 645 893
e 645 916
e 645 917
e 645 923
e 645 924
e 645 932
e 645 936
e 645 957
e 645 973
e 645 977
e 645 978
e 645 989
e 645 993
e 646 654
e 646 661
e 646 678
e 646 700
e 646 710
e 646 711
e 646 712
e 646 717
e 646 730
e 646 743
e 646 745
e 646 747
e 646 751
e 646 759
e 646 763
e 646 773
e 646 789
e 646 802
e 646 806
e 646 813
e 646 816
e 646 831
e 646 840
e 646 854
e 646 855
e 646 864
e 646 871
e 646 894
e 646 910
e 646 923
e 646 929
e 646 931
e 646 963
e 646 966
e 646 988
e 647 661
e 647 662
e 647 669
e 647 672
e 647 677
e 647 679
e 647 686
e 647 687
e 647 691
e 647 698
e 647 728
e 647 743
e 647 765
e 647 806
e 647 819
e 647 822
e 647 826
e 647 828
e 647 831
e 647 844
e 647 849
e 647 857
e 647 865
e 647 867
e 647 874
e 647 886
e 647 895
e 647 912
e 647 919
e 647 933
e 647 941
e 647 944
e 647 958
e 647 962
e 647 967
e 647 982
e 647 983
e 647 984
e 647 997
e 648 651
e 648 656
e 648 658
e 648 669
e 648 673
e 648 687
e 648 688
e 648 689
e 648 698
e 648 705
e 648 710
e 648 714
e 648 737
e 648 741
e 648 742
e 648 743
e 648 748
e 648 752
e 648 777
e 648 778
e 648 782
e 648 786
e 648 792
e 648 795
e 648 797
e 648 799
e 648 808
e 648 814
e 648 816
e 648 823
e 648 829
e 648 840
e 648 854
e 648 855
e 648 871
e 648 879
e 648 892
e 648 893
e 648 908
e 648 916
e 648 931
e 648 932
e 648 947
e 648 964
e 648 973
e 648 979
e 648 989
e 648 994
e 648 999
e 649 657
e 649 680
e 649 681
e 649 688
e 649 689
e 649 704
e 649 711
e 649 719
e 649 726
e 649 732
e 649 735
e 649 758
e 649 760
e 649 762
e 649 767
e 649 771
e 649 782
e 649 789
e 649 800
e 649 810
e 649 865
e 649 884
e 649 897
e 649 913
e 649 915
e 649 928
e 649 929
e 649 939
e 649 942
e 649 960
e 649 963
e 649 987
e 650 655
e 650 662
e 650 665
e 650 667
e 650 671
e 650 680
e 650 683
e 650 688
e 650 693
e 650 720
e 650 722
e 650 735
e 650 746
e 650 757
e 650 760
e 650 771
e 650 774
e 650 784
e 650 808
e 650 827
e 650 837
e 650 844
e 650 845
e 650 846
e 650 853
e 650 868
e 650 871
e 650 883
e 650 885
e 650 895
e 650 901
e 650 912
e 650 933
e 650 935
e 650 944
e 650 946
e 650 947
e 650 961
e 650 963
e 650 982
e 650 990
e 650 992
e 650 997
e 651 654
e 651 667
e 651 674
e 651 684
e 651 688
e 651 691
e 651 695
e 651 696
e 651 700
e 651 710
e 651 714
e 651 719
e 651 739
e 651 743
e 651 747
e 651 757
e 651 767
e 651 792
e 651 794
e 651 801
e 651 805
e 651 822
e 651 828
e 651 832
e 651 839
e 651 854
e 651 855
e 651 866
e 651 877
e 651 881
e 651 887
e 651 918
e 651 919
e 651 921
e 651 937
e 651 943
e 651 953
e 651 956
e 651 959
e 651 991
e 652 653
e 652 658
e 652 663
e 652 665
e 652 674
e 652 688
e 652 689
e 652 690
e 652 691
e 652 697
e 652 707
e 652 709
e 652 718
e 652 721
e 652 732
e 652 744
e 652 746
e 652 748
e 652 756
e 652 758
e 652 771
e 652 781
e 652 793
e 652 815
e 652 825
e 652 839
e 652 845
e 652 849
e 652 862
e 652 870
e 652 871
e 652 877
e 652 890
e 652 899
e 652 901
e 652 902
e 652 920
e 652 921
e 652 922
e 652 923
e 652 935
e 652 940
e 652 941
e 652 957
e 652 983
e 652 994
e 652 995
e 653 655
e 653 659
e 653 674
e 653 676
e 653 677
e 653 679
e 653 700
e 653 702
e 653 715
e 653 735
e 653 757
e 653 763
e 653 772
e 653 776
e 653 777
e 653 779
e 653 816
e 653 820
e 653 838
e 653 840
e 653 847
e 653 849
e 653 850
e 653 854
e 653 858
e 653 859
e 653 861
e 653 864
e 653 890
e 653 895
e 653 896
e 653 897
e 653 899
e 653 908
e 653 915
e 653 980
e 653 991
e 654 663
e 654 669
e 654 690
e 654 693
e 654 719
e 654 721
e 654 756
e 654 757
e 654 758
e 654 762
e 654 771
e 654 776
e 654 782
e 654 795
e 654 819
e 654 822
e 654 826
e 654 860
e 654 864
e 654 897
e 654 931
e 654 933
e 654 936
e 654 937
e 654 952
e 654 953
e 654 958
e 654 962
e 654 968
e 654 981
e 655 665
e 655 689
e 655 696
e 655 697
e 655 708
e 655 713
e 655 728
e 655 730
e 655 741
e 655 752
e 655 753
e 655 758
e 655 766
e 655 773
e 655 782
e 655 786
e 655 811
e 655 824
e 655 837
e 655 844
e 655 846
e 655 861
e 655 872
e 655 883
e 655 890
e 655 891
e 655 895
e 655 901
e 655 914
e 655 920
e 655 933
e 655 935
e 655 939
e 655 952
e 655 963
e 655 972
e 655 981
e 655 993
e 655 1000
e 656 660
e 656 662
e 656 680
e 656 684
e 656 690
e 656 694
e 656 702
e 656 708
e 656 752
e 656 772
e 656 776
e 656 804
e 656 814
e 656 817
e 656 821
e 656 829
e 656 839
e 656 844
e 656 851
e 656 857
e 656 874
e 656 891
e 656 893
e 656 912
e 656 925
e 656 944
e 656 960
e 656 968
e 656 972
e 656 977
e 656 998
e 657 664
e 657 665
e 657 667
e 657 672
e 657 676
e 657 682
e 657 694
e 657 704
e 657 707
e 657 714
e 657 719
e 657 727
e 657 728
e 657 761
e 657 766
e 657 769
e 657 779
e 657 794
e 657 801
e 657 806
e 657 809
e 657 810
e 657 812
e 657 820
e 657 823
e 657 832
e 657 837
e 657 849
e 657 872
e 657 878
e 657 881
e 657 893
e 657 904
e 657 908
e 657 935
e 657 938
e 657 970
e 657 996
e 657 1000
e 658 665
e 658 668
e 658 670
e 658 713
e 658 715
e 658 726
e 658 733
e 658 751
e 658 758
e 658 771
e 658 774
e 658 792
e 658 794
e 658 806
e 658 809
e 658 824
e 658 826
e 658 834
e 658 835
e 658 839
e 658 847
e 658 873
e 658 877
e 658 886
e 658 888
e 658 894
e 658 901
e 658 903
e 658 907
e 658 911
e 658 912
e 658 918
e 658 929
e 658 935
e 658 948
e 658 961
e 658 967
e 658 971
e 658 980
e 658 988
e 658 989
e 658 994
e 659 661
e 659 668
e 659 689
e 659 691
e 659 695
e 659 704
e 659 717
e 659 732
e 659 740
e 659 747
e 659 751
e 659 762
e 659 772
e 659 780
e 659 802
e 659 804
e 659 828
e 659 832
e 659 833
e 659 840
e 659 859
e 659 862
e 659 863
e 659 865
e 659 873
e 659 876
e 659 886
e 659 898
e 659 912
e 659 929
e 659 936
e 659 946
e 659 950
e 659 961
e 659 963
e 659 966
e 659 996
e 659 1000
e 660 667
e 660 684
e 660 694
e 660 713
e 660 726
e 660 728
e 660 729
e 660 734
e 660 737
e 660 746
e 660 781
e 660 784
e 660 785
e 660 795
e 660 796
e 660 807
e 660 810
e 660 812
e 660 821
e 660 824
e 660 847
e 660 862
e 660 878
e 660 885
e 660 891
e 660 899
e 660 905
e 660 914
e 660 921
e 660 922
e 660 935
e 660 938
e 660 941
e 660 949
e 660 957
e 660 965
e 660 967
e 660 977
e 660 983
e 660 985
e 660 986
e 661 674
e 661 678
e 661 682
e 661 684
e 661 686
e 661 698
e 661 711
e 661 723
e 661 726
e 661 732
e 661 738
e 661 741
e 661 752
e 661 770
e 661 791
e 661 804
e 661 818
e 661 833
e 661 847
e 661 866
e 661 867
e 661 876
e 661 886
e 661 901
e 661 906
e 661 907
e 661 908
e 661 927
e 661 933
e 661 942
e 661 951
e 661 958
e 661 965
e 661 991
e 661 998
e 662 665
e 662 671
e 662 681
e 662 685
e 662 689
e 662 721
e 662 722
e 662 728
e 662 730
e 662 734
e 662 745
e 662 748
e 662 752
e 662 754
e 662 756
e 662 762
e 662 766
e 662 774
e 662 788
e 662 789
e 662 810
e 662 812
e 662 817
e 662 818
e 662 824
e 662 830
e 662 861
e 662 874
e 662 880
e 662 892
e 662 894
e 662 901
e 662 903
e 662 910
e 662 912
e 662 934
e 662 936
e 662 940
e 662 954
e 662 955
e 662 957
e 662 975
e 662 983
e 662 994
e 662 998
e 663 674
e 663 676
e 663 680
e 663 700
e 663 703
e 663 709
e 663 710
e 663 768
e 663 772
e 663 789
e 663 795
e 663 797
e 663 799
e 663 808
e 663 843
e 663 844
e 663 848
e 663 862
e 663 870
e 663 893
e 663 894
e 663 895
e 663 900
e 663 901
e 663 912
e 663 926
e 663 941
e 663 943
e 663 947
e 663 953
e 663 966
e 664 677
e 664 692
e 664 711
e 664 714
e 664 722
e 664 732
e 664 736
e 664 745
e 664 753
e 664 777
e 664 782
e 664 784
e 664 787
e 664 814
e 664 816
e 664 819
e 664 822
e 664 823
e 664 839
e 664 888
e 664 901
e 664 913
e 664 918
e 664 935
e 664 949
e 664 952
e 664 953
e 664 954
e 664 957
e 664 966
e 664 989
e 664 992
e 664 996
e 664 999
e 665 669
e 665 679
e 665 681
e 665 686
e 665 710
e 665 715
e 665 716
e 665 737
e 665 768
e 665 783
e 665 812
e 665 815
e 665 832
e 665 841
e 665 850
e 665 852
e 665 854
e 665 855
e 665 859
e 665 882
e 665 887
e 665 890
e 665 903
e 665 905
e 665 928
e 665 930
e 665 933
e 665 938
e 665 942
e 665 943
e 665 946
e 665 964
e 665 981
e 665 982
e 665 984
e 665 985
e 666 670
e 666 689
e 666 701
e 666 702
e 666 705
e 666 710
e 666 716
e 666 719
e 666 725
e 666 726
e 666 729
e 666 737
e 666 742
e 666 752
e 666 756
e 666 769
e 666 775
e 666 805
e 666 806
e 666 813
e 666 838
e 666 839
e 666 847
e 666 851
e 666 856
e 666 857
e 666 859
e 666 874
e 666 884
e 666 899
e 666 903
e 666 921
e 666 930
e 666 950
e 666 951
e 666 953
e 666 965
e 666 971
e 666 972
e 666 975
e 666 977
e 666 982
e 666 998
e 667 670
e 667 675
e 667 680
e 667 682
e 667 704
e 667 709
e 667 712
e 667 728
e 667 730
e 667 735
e 667 736
e 667 737
e 667 805
e 667 816
e 667 817
e 667 823
e 667 845
e 667 848
e 667 849
e 667 871
e 667 878
e 667 888
e 667 900
e 667 903
e 667 922
e 667 926
e 667 968
e 667 978
e 667 996
e 668 671
e 668 672
e 668 682
e 668 695
e 668 699
e 668 744
e 668 754
e 668 797
e 668 803
e 668 813
e 668 823
e 668 847
e 668 853
e 668 874
e 668 909
e 668 926
e 668 932
e 668 937
e 668 938
e 668 943
e 668 946
e 668 960
e 668 968
e 668 979
e 668 1000
e 669 672
e 669 687
e 669 708
e 669 710
e 669 721
e 669 722
e 669 758
e 669 765
e 669 774
e 669 781
e 669 784
e 669 804
e 669 810
e 669 811
e 669 819
e 669 825
e 669 832
e 669 835
e 669 837
e 669 844
e 669 856
e 669 859
e 669 862
e 669 891
e 669 899
e 669 906
e 669 922
e 669 930
e 669 932
e 669 939
e 669 943
e 669 951
e 669 957
e 669 967
e 670 704
e 670 705
e 670 706
e 670 715
e 670 719
e 670 744
e 670 747
e 670 749
e 670 753
e 670 777
e 670 778
e 670 788
e 670 795
e 670 802
e 670 811
e 670 812
e 670 833
e 670 851
e 670 858
e 670 865
e 670 868
e 670 871
e 670 874
e 670 876
e 670 888
e 670 891
e 670 893
e 670 896
e 670 919
e 670 926
e 670 932
e 670 944
e 670 967
e 670 970
e 670 985
e 671 673
e 671 681
e 671 698
e 671 726
e 671 742
e 671 755
e 671 762
e 671 790
e 671 807
e 671 823
e 671 827
e 671 835
e 671 839
e 671 845
e 671 846
e 671 853
e 671 856
e 671 869
e 671 878
e 671 889
e 671 917
e 671 920
e 671 922
e 671 959
e 671 961
e 671 980
e 671 992
e 671 1000
e 672 682
e 672 683
e 672 698
e 672 699
e 672 705
e 672 706
e 672 769
e 672 777
e 672 787
e 672 790
e 672 821
e 672 823
e 672 825
e 672 839
e 672 843
e 672 848
e 672 853
e 672 855
e 672 897
e 672 908
e 672 912
e 672 926
e 672 931
e 672 934
e 672 935
e 672 956
e 672 958
e 672 961
e 672 973
e 672 984
e 672 993
e 673 679
e 673 687
e 673 704
e 673 712
e 673 746
e 673 753
e 673 758
e 673 783
e 673 792
e 673 808
e 673 811
e 673 824
e 673 866
e 673 873
e 673 892
e 673 895
e 673 900
e 673 908
e 673 911
e 673 926
e 673 935
e 673 951
e 673 966
e 673 968
e 673 975
e 674 727
e 674 735
e 674 740
e 674 770
e 674 775
e 674 785
e 674 790
e 674 794
e 674 799
e 674 824
e 674 829
e 674 846
e 674 861
e 674 870
e 674 874
e 674 875
e 674 893
e 674 920
e 674 929
e 674 946
e 674 948
e 674 953
e 674 955
e 674 977
e 674 982
e 674 985
e 674 996
e 675 677
e 675 710
e 675 723
e 675 747
e 675 751
e 675 752
e 675 765
e 675 768
e 675 781
e 675 785
e 675 792
e 675 794
e 675 796
e 675 798
e 675 811
e 675 828
e 675 834
e 675 835
e 675 836
e 675 903
e 675 918
e 675 923
e 675 927
e 675 938
e 675 948
e 675 963
e 675 993
e 675 996
e 676 688
e 676 707
e 676 712
e 676 714
e 676 729
e 676 751
e 676 755
e 676 756
e 676 766
e 676 771
e 676 795
e 676 796
e 676 802
e 676 810
e 676 832
e 676 851
e 676 853
e 676 861
e 676 867
e 676 869
e 676 871
e 676 882
e 676 889
e 676 903
e 676 911
e 676 913
e 676 922
e 676 938
e 676 942
e 676 951
e 676 973
e 676 989
e 676 996
e 677 681
e 677 691
e 677 701
e 677 704
e 677 710
e 677 711
e 677 724
e 677 727
e 677 743
e 677 762
e 677 763
e 677 765
e 677 776
e 677 786
e 677 803
e 677 827
e 677 834
e 677 855
e 677 857
e 677 859
e 677 877
e 677 889
e 677 891
e 677 893
e 677 897
e 677 904
e 677 910
e 677 939
e 677 940
e 677 948
e 677 955
e 677 957
e 677 959
e 677 976
e 677 981
e 677 989
e 678 689
e 678 718
e 678 739
e 678 753
e 678 767
e 678 769
e 678 781
e 678 792
e 678 799
e 678 801
e 678 802
e 678 810
e 678 812
e 678 836
e 678 840
e 678 842
e 678 844
e 678 868
e 678 874
e 678 884
e 678 885
e 678 912
e 678 918
e 678 939
e 678 946
e 678 957
e 678 962
e 678 966
e 678 970
e 678 973
e 678 977
e 678 980
e 678 983
e 679 681
e 679 705
e 679 709
e 679 725
e 679 741
e 679 753
e 679 760
e 679 764
e 679 765
e 679 785
e 679 787
e 679 794
e 679 800
e 679 801
e 679 825
e 679 830
e 679 832
e 679 834
e 679 838
e 679 855
e 679 865
e 679 880
e 679 883
e 679 908
e 679 912
e 679 923
e 679 945
e 679 948
e 679 955
e 679 971
e 679 973
e 680 685
e 680 716
e 680 718
e 680 723
e 680 729
e 680 730
e 680 741
e 680 751
e 680 754
e 680 764
e 680 774
e 680 792
e 680 814
e 680 816
e 680 823
e 680 824
e 680 852
e 680 859
e 680 860
e 680 862
e 680 864
e 680 866
e 680 869
e 680 883
e 680 885
e 680 889
e 680 898
e 680 928
e 680 930
e 680 936
e 680 960
e 680 964
e 680 967
e 680 969
e 680 975
e 681 683
e 681 697
e 681 701
e 681 711
e 681 765
e 681 766
e 681 779
e 681 792
e 681 793
e 681 798
e 681 801
e 681 806
e 681 858
e 681 863
e 681 876
e 681 904
e 681 918
e 681 919
e 681 943
e 681 954
e 681 955
e 681 959
e 681 960
e 681 965
e 681 979
e 681 995
e 682 691
e 682 694
e 682 697
e 682 714
e 682 727
e 682 737
e 682 746
e 682 757
e 682 770
e 682 802
e 682 808
e 682 823
e 682 825
e 682 845
e 682 873
e 682 899
e 682 916
e 682 931
e 682 940
e 682 949
e 682 958
e 682 974
e 682 975
e 682 981
e 682 986
e 682 990
e 683 686
e 683 690
e 683 693
e 683 718
e 683 724
e 683 740
e 683 746
e 683 750
e 683 751
e 683 770
e 683 777
e 683 784
e 683 786
e 683 788
e 683 792
e 683 795
e 683 804
e 683 807
e 683 813
e 683 817
e 683 819
e 683 832
e 683 845
e 683 848
e 683 861
e 683 871
e 683 887
e 683 890
e 683 891
e 683 903
e 683 905
e 683 915
e 683 923
e 683 932
e 683 936
e 683 958
e 683 978
e 683 979
e 683 984
e 683 997
e 683 998
e 683 999
e 684 686
e 684 700
e 684 708
e 684 709
e 684 712
e 684 741
e 684 771
e 684 781
e 684 795
e 684 806
e 684 812
e 684 813
e 684 815
e 684 834
e 684 866
e 684 883
e 684 890
e 684 901
e 684 910
e 684 931
e 684 932
e 684 951
e 684 956
e 684 959
e 684 966
e 684 973
e 684 991
e 684 992
e 685 690
e 685 711
e 685 717
e 685 720
e 685 722
e 685 723
e 685 738
e 685 742
e 685 744
e 685 746
e 685 765
e 685 766
e 685 768
e 685 776
e 685 777
e 685 783
e 685 807
e 685 816
e 685 836
e 685 853
e 685 860
e 685 865
e 685 870
e 685 895
e 685 906
e 685 916
e 685 921
e 685 956
e 685 961
e 685 963
e 685 999
e 686 697
e 686 703
e 686 730
e 686 739
e 686 741
e 686 766
e 686 777
e 686 785
e 686 825
e 686 829
e 686 869
e 686 870
e 686 895
e 686 904
e 686 907
e 686 936
e 686 954
e 686 956
e 686 965
e 686 970
e 686 981
e 686 982
e 686 988
e 687 689
e 687 695
e 687 700
e 687 726
e 687 742
e 687 750
e 687 751
e 687 759
e 687 766
e 687 779
e 687 785
e 687 806
e 687 810
e 687 813
e 687 815
e 687 816
e 687 817
e 687 824
e 687 860
e 687 865
e 687 868
e 687 872
e 687 874
e 687 895
e 687 897
e 687 903
e 687 927
e 687 932
e 687 933
e 687 934
e 687 951
e 687 960
e 687 962
e 687 969
e 687 972
e 687 976
e 687 995
e 688 697
e 688 699
e 688 709
e 688 715
e 688 716
e 688 722
e 688 736
e 688 745
e 688 746
e 688 747
e 688 750
e 688 754
e 688 760
e 688 772
e 688 784
e 688 790
e 688 796
e 688 799
e 688 810
e 688 811
e 688 817
e 688 820
e 688 823
e 688 836
e 688 837
e 688 852
e 688 873
e 688 877
e 688 897
e 688 900
e 688 910
e 688 916
e 688 931
e 688 971
e 688 975
e 688 979
e 688 986
e 689 692
e 689 697
e 689 707
e 689 726
e 689 729
e 689 744
e 689 745
e 689 749
e 689 769
e 689 782
e 689 788
e 689 791
e 689 796
e 689 797
e 689 798
e 689 800
e 689 834
e 689 876
e 689 883
e 689 885
e 689 888
e 689 895
e 689 900
e 689 911
e 689 918
e 689 919
e 689 920
e 689 942
e 689 968
e 689 973
e 690 701
e 690 717
e 690 721
e 690 728
e 690 736
e 690 758
e 690 765
e 690 774
e 690 775
e 690 777
e 690 786
e 690 790
e 690 800
e 690 805
e 690 818
e 690 827
e 690 853
e 690 861
e 690 865
e 690 871
e 690 881
e 690 894
e 690 925
e 690 940
e 690 944
e 690 949
e 690 975
e 690 983
e 690 989
e 690 991
e 690 998
e 691 698
e 691 699
e 691 701
e 691 702
e 691 723
e 691 775
e 691 789
e 691 813
e 691 826
e 691 838
e 691 847
e 691 860
e 691 862
e 691 872
e 691 888
e 691 901
e 691 913
e 691 917
e 691 921
e 691 933
e 691 945
e 691 947
e 691 952
e 691 954
e 691 970
e 691 975
e 691 978
e 692 706
e 692 712
e 692 714
e 692 717
e 692 727
e 692 728
e 692 732
e 692 747
e 692 754
e 692 755
e 692 757
e 692 771
e 692 779
e 692 784
e 692 798
e 692 807
e 692 818
e 692 827
e 692 841
e 692 844
e 692 847
e 692 861
e 692 869
e 692 873
e 692 894
e 692 899
e 692 900
e 692 903
e 692 918
e 692 924
e 692 954
e 692 961
e 692 962
e 692 963
e 692 966
e 692 968
e 692 990
e 692 999
e 693 695
e 693 732
e 693 735
e 693 736
e 693 768
e 693 774
e 693 776
e 693 783
e 693 801
e 693 811
e 693 813
e 693 819
e 693 820
e 693 823
e 693 827
e 693 849
e 693 851
e 693 879
e 693 889
e 693 914
e 693 917
e 693 925
e 693 939
e 693 950
e 693 972
e 693 974
e 693 975
e 693 976
e 693 981
e 693 991
e 694 703
e 694 709
e 694 727
e 694 730
e 694 734
e 694 740
e 694 746
e 694 747
e 694 782
e 694 783
e 694 798
e 694 812
e 694 827
e 694 829
e 694 841
e 694 845
e 694 847
e 694 879
e 694 880
e 694 902
e 694 907
e 694 912
e 694 926
e 694 927
e 694 936
e 694 977
e 694 990
e 695 697
e 695 712
e 695 733
e 695 734
e 695 746
e 695 754
e 695 767
e 695 770
e 695 785
e 695 790
e 695 813
e 695 818
e 695 828
e 695 855
e 695 859
e 695 864
e 695 882
e 695 883
e 695 895
e 695 902
e 695 907
e 695 908
e 695 922
e 695 924
e 695 934
e 695 941
e 695 942
e 695 946
e 695 956
e 695 957
e 695 980
e 695 999
e 695 1000
e 696 701
e 696 707
e 696 714
e 696 715
e 696 720
e 696 724
e 696 741
e 696 747
e 696 767
e 696 781
e 696 786
e 696 808
e 696 832
e 696 845
e 696 855
e 696 866
e 696 896
e 696 902
e 696 913
e 696 923
e 696 925
e 696 933
e 696 941
e 696 946
e 696 955
e 696 959
e 696 992
e 697 708
e 697 711
e 697 723
e 697 724
e 697 729
e 697 736
e 697 738
e 697 743
e 697 745
e 697 746
e 697 785
e 697 810
e 697 815
e 697 825
e 697 829
e 697 832
e 697 837
e 697 838
e 697 842
e 697 860
e 697 875
e 697 896
e 697 939
e 697 940
e 697 965
e 697 976
e 697 988
e 697 993
e 698 707
e 698 729
e 698 742
e 698 756
e 698 758
e 698 776
e 698 790
e 698 791
e 698 792
e 698 798
e 698 801
e 698 805
e 698 811
e 698 813
e 698 817
e 698 819
e 698 845
e 698 861
e 698 871
e 698 880
e 698 888
e 698 893
e 698 895
e 698 913
e 698 918
e 698 924
e 698 934
e 698 947
e 698 951
e 698 952
e 698 954
e 698 957
e 698 959
e 698 963
e 698 965
e 698 966
e 698 973
e 698 983
e 698 999
e 699 701
e 699 707
e 699 716
e 699 721
e 699 730
e 699 738
e 699 748
e 699 772
e 699 774
e 699 776
e 699 783
e 699 786
e 699 789
e 699 796
e 699 812
e 699 826
e 699 832
e 699 836
e 699 839
e 699 841
e 699 856
e 699 865
e 699 867
e 699 872
e 699 882
e 699 889
e 699 892
e 699 893
e 699 910
e 699 917
e 699 920
e 699 925
e 699 936
e 699 949
e 699 986
e 699 996
e 700 725
e 700 734
e 700 735
e 700 736
e 700 737
e 700 760
e 700 765
e 700 767
e 700 787
e 700 797
e 700 802
e 700 806
e 700 831
e 700 854
e 700 874
e 700 878
e 700 890
e 700 900
e 700 912
e 700 922
e 700 926
e 700 929
e 700 935
e 700 939
e 700 960
e 700 963
e 700 967
e 700 977
e 700 984
e 701 705
e 701 710
e 701 714
e 701 725
e 701 726
e 701 728
e 701 733
e 701 748
e 701 755
e 701 767
e 701 776
e 701 786
e 701 792
e 701 809
e 701 812
e 701 831
e 701 846
e 701 856
e 701 868
e 701 878
e 701 880
e 701 889
e 701 896
e 701 898
e 701 905
e 701 920
e 701 923
e 701 926
e 701 928
e 701 954
e 701 964
e 701 965
e 701 976
e 701 985
e 702 720
e 702 763
e 702 773
e 702 776
e 702 779
e 702 782
e 702 784
e 702 799
e 702 820
e 702 829
e 702 842
e 702 861
e 702 868
e 702 875
e 702 922
e 702 923
e 702 939
e 702 940
e 702 956
e 702 958
e 702 974
e 702 983
e 702 985
e 702 998
e 703 704
e 703 713
e 703 741
e 703 763
e 703 797
e 703 804
e 703 815
e 703 828
e 703 833
e 703 839
e 703 852
e 703 872
e 703 873
e 703 878
e 703 893
e 703 903
e 703 905
e 703 912
e 703 922
e 703 929
e 703 933
e 703 944
e 703 951
e 703 952
e 703 959
e 703 970
e 704 708
e 704 733
e 704 741
e 704 743
e 704 755
e 704 771
e 704 780
e 704 782
e 704 815
e 704 826
e 704 832
e 704 834
e 704 839
e 704 874
e 704 883
e 704 884
e 704 910
e 704 911
e 704 913
e 704 923
e 704 925
e 704 931
e 704 966
e 704 974
e 704 975
e 704 978
e 704 993
e 705 716
e 705 718
e 705 720
e 705 722
e 705 736
e 705 766
e 705 786
e 705 793
e 705 802
e 705 815
e 705 818
e 705 821
e 705 824
e 705 836
e 705 841
e 705 842
e 705 846
e 705 852
e 705 855
e 705 873
e 705 892
e 705 898
e 705 900
e 705 904
e 705 909
e 705 915
e 705 921
e 705 925
e 705 926
e 705 941
e 705 950
e 705 955
e 705 958
e 705 994
e 705 998
e 706 721
e 706 736
e 706 737
e 706 740
e 706 743
e 706 746
e 706 750
e 706 752
e 706 757
e 706 760
e 706 768
e 706 771
e 706 782
e 706 784
e 706 785
e 706 793
e 706 796
e 706 810
e 706 821
e 706 822
e 706 828
e 706 847
e 706 852
e 706 857
e 706 866
e 706 868
e 706 872
e 706 874
e 706 876
e 706 878
e 706 909
e 706 944
e 706 953
e 706 956
e 706 959
e 706 961
e 706 974
e 706 980
e 706 989
e 706 991
e 706 994
e 707 711
e 707 741
e 707 745
e 707 746
e 707 748
e 707 750
e 707 754
e 707 763
e 707 765
e 707 775
e 707 780
e 707 786
e 707 792
e 707 798
e 707 802
e 707 817
e 707 824
e 707 827
e 707 836
e 707 846
e 707 864
e 707 870
e 707 885
e 707 894
e 707 910
e 707 915
e 707 951
e 707 963
e 707 977
e 707 990
e 707 994
e 708 719
e 708 728
e 708 738
e 708 750
e 708 767
e 708 779
e 708 793
e 708 798
e 708 807
e 708 809
e 708 812
e 708 813
e 708 814
e 708 829
e 708 833
e 708 853
e 708 858
e 708 872
e 708 873
e 708 877
e 708 882
e 708 898
e 708 906
e 708 930
e 708 950
e 708 972
e 709 711
e 709 715
e 709 720
e 709 723
e 709 731
e 709 732
e 709 742
e 709 750
e 709 759
e 709 765
e 709 771
e 709 778
e 709 793
e 709 796
e 709 808
e 709 813
e 709 816
e 709 817
e 709 819
e 709 821
e 709 832
e 709 833
e 709 850
e 709 857
e 709 861
e 709 872
e 709 874
e 709 881
e 709 884
e 709 900
e 709 905
e 709 914
e 709 919
e 709 929
e 709 948
e 709 952
e 709 953
e 709 958
e 709 963
e 709 967
e 709 975
e 709 990
e 709 991
e 709 1000
e 710 715
e 710 718
e 710 730
e 710 746
e 710 765
e 710 769
e 710 793
e 710 795
e 710 806
e 710 807
e 710 808
e 710 819
e 710 857
e 710 871
e 710 877
e 710 878
e 710 897
e 710 904
e 710 908
e 710 912
e 710 922
e 710 926
e 710 930
e 710 940
e 710 956
e 710 968
e 710 971
e 710 977
e 710 980
e 710 981
e 710 985
e 710 989
e 710 1000
e 711 713
e 711 719
e 711 725
e 711 735
e 711 736
e 711 740
e 711 742
e 711 763
e 711 764
e 711 815
e 711 819
e 711 820
e 711 835
e 711 850
e 711 853
e 711 860
e 711 877
e 711 890
e 711 925
e 711 932
e 711 937
e 711 943
e 711 960
e 711 992
e 712 718
e 712 733
e 712 738
e 712 744
e 712 753
e 712 757
e 712 780
e 712 793
e 712 806
e 712 822
e 712 825
e 712 836
e 712 841
e 712 845
e 712 860
e 712 874
e 712 884
e 712 909
e 712 914
e 712 919
e 712 920
e 712 937
e 712 942
e 712 944
e 712 965
e 712 966
e 712 967
e 712 969
e 712 980
e 712 992
e 712 997
e 712 1000
e 713 714
e 713 719
e 713 720
e 713 730
e 713 751
e 713 763
e 713 769
e 713 778
e 713 785
e 713 787
e 713 788
e 713 790
e 713 800
e 713 804
e 713 834
e 713 848
e 713 857
e 713 861
e 713 867
e 713 879
e 713 883
e 713 894
e 713 900
e 713 902
e 713 907
e 713 919
e 713 923
e 713 944
e 713 964
e 713 966
e 713 974
e 713 975
e 713 986
e 714 725
e 714 727
e 714 734
e 714 735
e 714 736
e 714 773
e 714 776
e 714 796
e 714 808
e 714 828
e 714 834
e 714 838
e 714 843
e 714 845
e 714 847
e 714 848
e 714 850
e 714 853
e 714 861
e 714 865
e 714 885
e 714 888
e 714 901
e 714 940
e 714 962
e 714 971
e 714 974
e 714 978
e 714 985
e 714 988
e 715 717
e 715 741
e 715 752
e 715 758
e 715 763
e 715 773
e 715 785
e 715 813
e 715 814
e 715 815
e 715 820
e 715 828
e 715 835
e 715 878
e 715 879
e 715 925
e 715 943
e 715 962
e 715 964
e 715 967
e 715 987
e 715 988
e 715 1000
e 716 737
e 716 739
e 716 752
e 716 753
e 716 760
e 716 773
e 716 775
e 716 798
e 716 803
e 716 810
e 716 819
e 716 826
e 716 830
e 716 835
e 716 839
e 716 849
e 716 853
e 716 872
e 716 894
e 716 903
e 716 906
e 716 913
e 716 916
e 716 926
e 716 928
e 716 941
e 716 947
e 716 948
e 716 954
e 716 962
e 716 974
e 716 980
e 716 982
e 716 986
e 716 990
e 716 993
e 716 998
e 717 747
e 717 751
e 717 758
e 717 760
e 717 769
e 717 779
e 717 780
e 717 781
e 717 809
e 717 818
e 717 819
e 717 823
e 717 841
e 717 866
e 717 873
e 717 885
e 717 890
e 717 910
e 717 913
e 717 916
e 717 919
e 717 922
e 717 926
e 717 938
e 717 939
e 717 956
e 717 967
e 717 969
e 717 985
e 718 739
e 718 750
e 718 752
e 718 781
e 718 786
e 718 794
e 718 807
e 718 810
e 718 816
e 718 825
e 718 833
e 718 892
e 718 896
e 718 918
e 718 938
e 718 957
e 718 961
e 718 966
e 718 971
e 718 972
e 718 985
e 718 986
e 718 992
e 718 997
e 719 726
e 719 737
e 719 748
e 719 785
e 719 786
e 719 791
e 719 796
e 719 808
e 719 824
e 719 894
e 719 941
e 719 964
e 719 966
e 719 970
e 719 982
e 719 983
e 719 992
e 720 730
e 720 748
e 720 749
e 720 755
e 720 766
e 720 768
e 720 786
e 720 787
e 720 790
e 720 831
e 720 841
e 720 875
e 720 901
e 720 922
e 720 944
e 720 975
e 720 994
e 721 733
e 721 742
e 721 756
e 721 781
e 721 823
e 721 840
e 721 841
e 721 866
e 721 870
e 721 910
e 721 911
e 721 912
e 721 933
e 721 942
e 721 954
e 721 970
e 721 971
e 721 972
e 722 724
e 722 737
e 722 742
e 722 743
e 722 747
e 722 754
e 722 755
e 722 796
e 722 802
e 722 804
e 722 818
e 722 831
e 722 839
e 722 844
e 722 875
e 722 878
e 722 891
e 722 898
e 722 899
e 722 901
e 722 903
e 722 904
e 722 935
e 722 958
e 722 991
e 722 992
e 723 726
e 723 780
e 723 785
e 723 787
e 723 788
e 723 792
e 723 820
e 723 826
e 723 861
e 723 862
e 723 863
e 723 878
e 723 880
e 723 883
e 723 890
e 723 892
e 723 903
e 723 926
e 723 974
e 723 986
e 724 729
e 724 734
e 724 737
e 724 745
e 724 758
e 724 764
e 724 765
e 724 767
e 724 768
e 724 770
e 724 778
e 724 779
e 724 783
e 724 809
e 724 820
e 724 826
e 724 849
e 724 884
e 724 889
e 724 890
e 724 895
e 724 910
e 724 913
e 724 915
e 724 917
e 724 939
e 724 942
e 724 946
e 724 956
e 724 966
e 724 981
e 724 983
e 724 991
e 724 993
e 724 997
e 725 735
e 725 739
e 725 740
e 725 743
e 725 746
e 725 755
e 725 757
e 725 768
e 725 771
e 725 772
e 725 777
e 725 778
e 725 783
e 725 797
e 725 804
e 725 837
e 725 847
e 725 853
e 725 856
e 725 878
e 725 882
e 725 899
e 725 922
e 725 926
e 725 933
e 725 957
e 725 966
e 725 969
e 725 988
e 725 998
e 726 736
e 726 743
e 726 774
e 726 783
e 726 788
e 726 793
e 726 810
e 726 819
e 726 820
e 726 821
e 726 849
e 726 859
e 726 868
e 726 872
e 726 877
e 726 882
e 726 893
e 726 915
e 726 918
e 726 920
e 726 935
e 726 951
e 726 953
e 726 976
e 726 979
e 726 984
e 727 737
e 727 743
e 727 751
e 727 762
e 727 782
e 727 790
e 727 791
e 727 812
e 727 816
e 727 818
e 727 834
e 727 840
e 727 847
e 727 898
e 727 903
e 727 911
e 727 927
e 727 942
e 727 944
e 727 947
e 727 973
e 727 974
e 727 983
e 727 985
e 728 739
e 728 747
e 728 752
e 728 765
e 728 766
e 728 769
e 728 798
e 728 803
e 728 808
e 728 843
e 728 854
e 728 872
e 728 883
e 728 904
e 728 908
e 728 910
e 728 912
e 728 935
e 728 948
e 728 962
e 728 981
e 728 983
e 728 987
e 729 731
e 729 734
e 729 752
e 729 757
e 729 762
e 729 793
e 729 797
e 729 828
e 729 830
e 729 831
e 729 846
e 729 873
e 729 875
e 729 876
e 729 878
e 729 882
e 729 884
e 729 894
e 729 911
e 729 912
e 729 937
e 729 941
e 729 959
e 729 960
e 729 967
e 729 968
e 729 972
e 729 976
e 729 979
e 729 990
e 730 731
e 730 737
e 730 739
e 730 745
e 730 749
e 730 757
e 730 765
e 730 775
e 730 777
e 730 780
e 730 809
e 730 810
e 730 830
e 730 837
e 730 840
e 730 841
e 730 843
e 730 849
e 730 853
e 730 886
e 730 921
e 730 922
e 730 930
e 730 936
e 730 955
e 730 961
e 730 974
e 730 995
e 730 996
e 730 998
e 731 733
e 731 751
e 731 757
e 731 762
e 731 765
e 731 771
e 731 803
e 731 820
e 731 822
e 731 826
e 731 850
e 731 856
e 731 871
e 731 872
e 731 873
e 731 878
e 731 885
e 731 888
e 731 896
e 731 899
e 731 905
e 731 911
e 731 912
e 731 917
e 731 924
e 731 933
e 731 936
e 731 939
e 731 942
e 731 964
e 731 971
e 731 985
e 731 989
e 731 994
e 732 734
e 732 751
e 732 753
e 732 757
e 732 787
e 732 790
e 732 803
e 732 823
e 732 832
e 732 844
e 732 872
e 732 874
e 732 883
e 732 896
e 732 898
e 732 919
e 732 921
e 732 924
e 732 933
e 732 934
e 732 936
e 732 942
e 732 952
e 732 956
e 732 957
e 732 982
e 732 994
e 733 734
e 733 740
e 733 780
e 733 788
e 733 796
e 733 802
e 733 822
e 733 841
e 733 861
e 733 882
e 733 892
e 733 911
e 733 921
e 733 937
e 733 954
e 733 963
e 733 976
e 733 979
e 734 736
e 734 742
e 734 749
e 734 752
e 734 784
e 734 790
e 734 809
e 734 815
e 734 834
e 734 841
e 734 842
e 734 849
e 734 878
e 734 890
e 734 899
e 734 911
e 734 912
e 734 917
e 734 918
e 734 929
e 734 933
e 734 940
e 734 948
e 734 958
e 734 981
e 735 757
e 735 769
e 735 780
e 735 782
e 735 785
e 735 802
e 735 810
e 735 820
e 735 824
e 735 826
e 735 850
e 735 867
e 735 873
e 735 888
e 735 890
e 735 892
e 735 894
e 735 901
e 735 914
e 735 917
e 735 931
e 735 938
e 735 941
e 735 944
e 735 946
e 735 952
e 735 953
e 735 966
e 735 970
e 735 984
e 735 989
e 735 1000
e 736 755
e 736 821
e 736 824
e 736 827
e 736 846
e 736 851
e 736 864
e 736 866
e 736 867
e 736 874
e 736 879
e 736 897
e 736 901
e 736 905
e 736 911
e 736 921
e 736 945
e 736 951
e 736 988
e 736 991
e 737 745
e 737 755
e 737 765
e 737 778
e 737 781
e 737 786
e 737 787
e 737 790
e 737 797
e 737 804
e 737 813
e 737 828
e 737 829
e 737 832
e 737 840
e 737 846
e 737 858
e 737 859
e 737 875
e 737 897
e 737 899
e 737 903
e 737 912
e 737 913
e 737 915
e 737 918
e 737 938
e 737 942
e 737 954
e 737 958
e 737 969
e 737 979
e 737 984
e 737 990
e 738 749
e 738 779
e 738 792
e 738 809
e 738 811
e 738 817
e 738 818
e 738 826
e 738 844
e 738 864
e 738 874
e 738 898
e 738 915
e 738 919
e 738 925
e 738 928
e 738 933
e 738 938
e 738 939
e 738 958
e 738 974
e 738 976
e 738 981
e 738 997
e 738 1000
e 739 762
e 739 777
e 739 789
e 739 797
e 739 798
e 739 813
e 739 820
e 739 823
e 739 826
e 739 833
e 739 855
e 739 861
e 739 865
e 739 876
e 739 899
e 739 900
e 739 905
e 739 944
e 739 987
e 739 997
e 740 747
e 740 749
e 740 751
e 740 763
e 740 768
e 740 770
e 740 779
e 740 782
e 740 823
e 740 833
e 740 842
e 740 844
e 740 846
e 740 847
e 740 848
e 740 852
e 740 854
e 740 864
e 740 878
e 740 900
e 740 906
e 740 911
e 740 922
e 740 925
e 740 929
e 740 938
e 740 941
e 740 946
e 740 963
e 740 979
e 740 987
e 740 991
e 741 744
e 741 757
e 741 767
e 741 778
e 741 780
e 741 784
e 741 824
e 741 825
e 741 826
e 741 828
e 741 829
e 741 839
e 741 851
e 741 854
e 741 856
e 741 873
e 741 896
e 741 912
e 741 913
e 741 915
e 741 925
e 741 928
e 741 933
e 741 965
e 741 967
e 741 974
e 741 979
e 741 981
e 741 995
e 742 748
e 742 751
e 742 761
e 742 762
e 742 766
e 742 771
e 742 785
e 742 802
e 742 810
e 742 815
e 742 831
e 742 845
e 742 882
e 742 883
e 742 893
e 742 903
e 742 909
e 742 918
e 742 922
e 742 932
e 742 946
e 742 952
e 742 956
e 742 976
e 742 983
e 742 996
e 743 755
e 743 757
e 743 761
e 743 770
e 743 778
e 743 804
e 743 807
e 743 809
e 743 812
e 743 863
e 743 881
e 743 891
e 743 893
e 743 902
e 743 919
e 743 924
e 743 926
e 743 935
e 743 937
e 743 952
e 743 962
e 743 972
e 743 988
e 743 993
e 743 998
e 743 999
e 744 785
e 744 788
e 744 789
e 744 795
e 744 804
e 744 842
e 744 878
e 744 885
e 744 928
e 744 938
e 744 956
e 744 960
e 744 963
e 744 968
e 744 976
e 744 977
e 744 998
e 745 751
e 745 758
e 745 766
e 745 770
e 745 777
e 745 782
e 745 785
e 745 786
e 745 796
e 745 799
e 745 806
e 745 809
e 745 815
e 745 816
e 745 821
e 745 822
e 745 837
e 745 846
e 745 857
e 745 871
e 745 877
e 745 883
e 745 889
e 745 898
e 745 942
e 745 945
e 745 959
e 745 987
e 745 989
e 745 992
e 746 774
e 746 777
e 746 778
e 746 784
e 746 787
e 746 791
e 746 797
e 746 815
e 746 818
e 746 843
e 746 846
e 746 865
e 746 897
e 746 906
e 746 945
e 746 947
e 746 979
e 746 998
e 747 762
e 747 765
e 747 771
e 747 784
e 747 788
e 747 810
e 747 826
e 747 829
e 747 835
e 747 840
e 747 842
e 747 844
e 747 851
e 747 877
e 747 892
e 747 900
e 747 903
e 747 907
e 747 910
e 747 929
e 747 966
e 747 976
e 747 978
e 747 988
e 748 749
e 748 767
e 748 780
e 748 797
e 748 807
e 748 820
e 748 835
e 748 841
e 748 843
e 748 857
e 748 865
e 748 871
e 748 874
e 748 876
e 748 913
e 748 929
e 748 930
e 748 934
e 748 939
e 748 944
e 748 945
e 748 946
e 748 991
e 749 756
e 749 787
e 749 802
e 749 815
e 749 832
e 749 835
e 749 837
e 749 848
e 749 866
e 749 877
e 749 878
e 749 896
e 749 905
e 749 926
e 749 937
e 749 956
e 749 968
e 749 986
e 749 987
e 749 988
e 749 989
e 749 990
e 750 753
e 750 767
e 750 793
e 750 809
e 750 811
e 750 819
e 750 847
e 750 851
e 750 857
e 750 870
e 750 878
e 750 881
e 750 913
e 750 917
e 750 918
e 750 921
e 750 934
e 750 938
e 751 781
e 751 788
e 751 789
e 751 795
e 751 799
e 751 804
e 751 814
e 751 816
e 751 818
e 751 819
e 751 820
e 751 840
e 751 846
e 751 849
e 751 858
e 751 861
e 751 864
e 751 865
e 751 867
e 751 875
e 751 886
e 751 911
e 751 917
e 751 919
e 751 930
e 751 934
e 751 940
e 751 947
e 751 958
e 751 961
e 751 968
e 751 974
e 751 993
e 751 994
e 752 755
e 752 767
e 752 773
e 752 810
e 752 813
e 752 825
e 752 827
e 752 865
e 752 871
e 752 893
e 752 909
e 752 942
e 752 951
e 752 966
e 752 974
e 752 982
e 752 990
e 752 992
e 753 762
e 753 776
e 753 782
e 753 784
e 753 791
e 753 800
e 753 809
e 753 811
e 753 819
e 753 823
e 753 840
e 753 845
e 753 852
e 753 881
e 753 886
e 753 890
e 753 894
e 753 917
e 753 927
e 753 952
e 753 963
e 753 967
e 753 973
e 753 974
e 753 976
e 753 978
e 753 984
e 753 991
e 753 996
e 754 764
e 754 777
e 754 787
e 754 793
e 754 847
e 754 897
e 754 899
e 754 908
e 754 911
e 754 919
e 754 923
e 754 933
e 754 941
e 754 993
e 754 1000
e 755 770
e 755 771
e 755 787
e 755 799
e 755 809
e 755 826
e 755 827
e 755 829
e 755 856
e 755 863
e 755 864
e 755 881
e 755 884
e 755 888
e 755 901
e 755 902
e 755 904
e 755 918
e 755 943
e 755 948
e 755 954
e 755 964
e 755 970
e 755 973
e 755 979
e 756 762
e 756 767
e 756 768
e 756 770
e 756 778
e 756 795
e 756 798
e 756 799
e 756 810
e 756 814
e 756 818
e 756 824
e 756 826
e 756 835
e 756 848
e 756 849
e 756 851
e 756 860
e 756 877
e 756 879
e 756 881
e 756 891
e 756 903
e 756 912
e 756 916
e 756 939
e 756 944
e 756 958
e 756 960
e 756 965
e 756 969
e 756 972
e 756 977
e 756 989
e 757 780
e 757 781
e 757 787
e 757 790
e 757 797
e 757 800
e 757 803
e 757 806
e 757 813
e 757 841
e 757 847
e 757 852
e 757 853
e 757 857
e 757 862
e 757 871
e 757 878
e 757 882
e 757 892
e 757 894
e 757 907
e 757 912
e 757 922
e 757 923
e 757 927
e 757 928
e 757 937
e 757 942
e 757 946
e 757 948
e 757 955
e 757 967
e 757 978
e 757 993
e 758 765
e 758 771
e 758 790
e 758 822
e 758 829
e 758 831
e 758 843
e 758 844
e 758 848
e 758 853
e 758 868
e 758 871
e 758 880
e 758 888
e 758 891
e 758 916
e 758 921
e 758 933
e 758 939
e 758 949
e 758 969
e 758 982
e 758 983
e 758 984
e 758 996
e 759 768
e 759 782
e 759 798
e 759 808
e 759 816
e 759 833
e 759 840
e 759 852
e 759 860
e 759 868
e 759 870
e 759 875
e 759 880
e 759 881
e 759 891
e 759 893
e 759 911
e 759 925
e 759 929
e 759 944
e 759 955
e 759 962
e 759 963
e 759 964
e 759 973
e 759 975
e 759 979
e 759 981
e 760 771
e 760 779
e 760 790
e 760 797
e 760 802
e 760 815
e 760 826
e 760 827
e 760 859
e 760 865
e 760 875
e 760 910
e 760 922
e 760 926
e 760 927
e 760 930
e 760 935
e 760 940
e 760 950
e 760 963
e 760 975
e 761 792
e 761 799
e 761 824
e 761 863
e 761 868
e 761 872
e 761 873
e 761 882
e 761 891
e 761 897
e 761 915
e 761 933
e 761 943
e 761 947
e 761 952
e 761 960
e 761 967
e 761 974
e 761 975
e 761 985
e 761 991
e 762 793
e 762 817
e 762 833
e 762 856
e 762 858
e 762 872
e 762 886
e 762 914
e 762 951
e 762 953
e 762 954
e 762 960
e 762 963
e 762 964
e 762 985
e 762 991
e 763 764
e 763 768
e 763 774
e 763 777
e 763 781
e 763 811
e 763 817
e 763 825
e 763 840
e 763 850
e 763 851
e 763 858
e 763 860
e 763 866
e 763 875
e 763 935
e 763 961
e 763 962
e 763 982
e 763 987
e 764 793
e 764 811
e 764 816
e 764 822
e 764 827
e 764 832
e 764 863
e 764 872
e 764 902
e 764 920
e 764 921
e 764 929
e 764 935
e 764 940
e 764 950
e 764 964
e 764 970
e 764 982
e 764 997
e 765 767
e 765 794
e 765 805
e 765 806
e 765 818
e 765 828
e 765 838
e 765 847
e 765 866
e 765 869
e 765 879
e 765 904
e 765 908
e 765 909
e 765 914
e 765 919
e 765 923
e 765 926
e 765 932
e 765 944
e 765 947
e 765 949
e 765 955
e 765 958
e 765 959
e 765 960
e 765 970
e 765 987
e 765 988
e 765 991
e 766 772
e 766 786
e 766 808
e 766 812
e 766 813
e 766 814
e 766 821
e 766 842
e 766 846
e 766 850
e 766 859
e 766 884
e 766 892
e 766 901
e 766 905
e 766 908
e 766 913
e 766 921
e 766 926
e 766 928
e 766 930
e 766 933
e 766 946
e 766 968
e 766 979
e 766 987
e 766 997
e 766 998
e 767 769
e 767 772
e 767 775
e 767 780
e 767 785
e 767 788
e 767 791
e 767 793
e 767 798
e 767 825
e 767 845
e 767 872
e 767 880
e 767 881
e 767 886
e 767 914
e 767 937
e 767 938
e 767 943
e 767 954
e 767 970
e 767 971
e 767 979
e 767 996
e 767 998
e 767 999
e 768 778
e 768 783
e 768 787
e 768 808
e 768 830
e 768 838
e 768 893
e 768 907
e 768 919
e 768 923
e 768 936
e 768 946
e 768 955
e 768 971
e 768 973
e 768 975
e 768 977
e 768 984
e 769 782
e 769 828
e 769 835
e 769 839
e 769 841
e 769 843
e 769 850
e 769 856
e 769 865
e 769 872
e 769 889
e 769 896
e 769 904
e 769 906
e 769 925
e 769 944
e 769 951
e 769 956
e 769 960
e 769 974
e 769 978
e 769 981
e 769 997
e 769 998
e 770 777
e 770 788
e 770 793
e 770 805
e 770 810
e 770 837
e 770 838
e 770 850
e 770 851
e 770 856
e 770 866
e 770 868
e 770 875
e 770 899
e 770 902
e 770 909
e 770 910
e 770 915
e 770 928
e 770 946
e 770 963
e 770 989
e 770 992
e 771 784
e 771 843
e 771 861
e 771 894
e 771 895
e 771 899
e 771 902
e 771 903
e 771 931
e 771 936
e 771 957
e 771 959
e 771 973
e 771 999
e 772 792
e 772 801
e 772 809
e 772 820
e 772 834
e 772 836
e 772 858
e 772 859
e 772 900
e 772 909
e 772 913
e 772 925
e 772 929
e 772 932
e 772 933
e 772 934
e 772 939
e 772 952
e 772 1000
e 773 777
e 773 805
e 773 806
e 773 812
e 773 822
e 773 828
e 773 838
e 773 853
e 773 857
e 773 904
e 773 913
e 773 918
e 773 923
e 773 927
e 773 931
e 773 936
e 773 939
e 773 954
e 773 960
e 773 973
e 773 992
e 774 775
e 774 786
e 774 801
e 774 823
e 774 828
e 774 834
e 774 849
e 774 853
e 774 854
e 774 855
e 774 860
e 774 863
e 774 915
e 774 918
e 774 926
e 774 939
e 774 940
e 774 945
e 774 961
e 774 970
e 774 978
e 774 979
e 774 980
e 774 992
e 774 994
e 775 781
e 775 782
e 775 804
e 775 808
e 775 816
e 775 828
e 775 829
e 775 863
e 775 874
e 775 880
e 775 892
e 775 894
e 775 925
e 775 926
e 775 930
e 775 936
e 775 942
e 775 959
e 775 965
e 775 967
e 775 968
e 775 971
e 775 980
e 775 993
e 776 778
e 776 788
e 776 791
e 776 809
e 776 825
e 776 830
e 776 831
e 776 833
e 776 834
e 776 837
e 776 852
e 776 869
e 776 900
e 776 904
e 776 908
e 776 915
e 776 916
e 776 921
e 776 930
e 776 983
e 777 787
e 777 793
e 777 798
e 777 804
e 777 837
e 777 839
e 777 840
e 777 846
e 777 850
e 777 854
e 777 872
e 777 876
e 777 882
e 777 889
e 777 897
e 777 909
e 777 915
e 777 919
e 777 927
e 777 935
e 777 960
e 777 976
e 777 979
e 777 980
e 777 981
e 777 982
e 777 987
e 778 797
e 778 826
e 778 837
e 778 862
e 778 879
e 778 900
e 778 907
e 778 911
e 778 922
e 778 930
e 778 950
e 778 954
e 778 959
e 778 971
e 778 982
e 778 985
e 778 991
e 779 811
e 779 812
e 779 822
e 779 823
e 779 844
e 779 845
e 779 852
e 779 878
e 779 883
e 779 888
e 779 903
e 779 918
e 779 923
e 779 934
e 779 935
e 779 943
e 779 946
e 779 952
e 779 960
e 779 963
e 780 790
e 780 796
e 780 809
e 780 831
e 780 860
e 780 873
e 780 877
e 780 879
e 780 885
e 780 893
e 780 902
e 780 906
e 780 918
e 780 930
e 780 942
e 780 946
e 780 951
e 780 969
e 780 971
e 780 975
e 780 980
e 780 986
e 780 988
e 781 790
e 781 816
e 781 824
e 781 828
e 781 838
e 781 852
e 781 855
e 781 858
e 781 865
e 781 871
e 781 880
e 781 886
e 781 900
e 781 911
e 781 918
e 781 923
e 781 940
e 781 947
e 781 959
e 781 966
e 781 968
e 781 990
e 781 992
e 781 1000
e 782 793
e 782 835
e 782 842
e 782 872
e 782 874
e 782 882
e 782 883
e 782 888
e 782 894
e 782 912
e 782 927
e 782 930
e 782 938
e 782 941
e 782 952
e 782 954
e 782 972
e 783 799
e 783 837
e 783 840
e 783 887
e 783 894
e 783 898
e 783 900
e 783 907
e 783 917
e 783 922
e 783 937
e 783 939
e 783 941
e 783 956
e 783 962
e 783 964
e 783 969
e 783 971
e 783 976
e 783 978
e 784 812
e 784 817
e 784 825
e 784 829
e 784 830
e 784 835
e 784 897
e 784 941
e 784 945
e 784 952
e 784 962
e 784 967
e 784 977
e 784 978
e 784 979
e 784 999
e 785 791
e 785 810
e 785 813
e 785 825
e 785 832
e 785 835
e 785 839
e 785 847
e 785 855
e 785 860
e 785 867
e 785 872
e 785 873
e 785 886
e 785 888
e 785 892
e 785 896
e 785 915
e 785 919
e 785 925
e 785 933
e 785 946
e 785 951
e 785 960
e 785 968
e 785 970
e 785 974
e 785 978
e 785 985
e 785 988
e 785 992
e 785 994
e 785 999
e 786 793
e 786 803
e 786 804
e 786 820
e 786 829
e 786 836
e 786 841
e 786 866
e 786 875
e 786 885
e 786 895
e 786 917
e 786 924
e 786 929
e 786 937
e 786 943
e 786 949
e 786 965
e 786 989
e 786 990
e 786 991
e 787 790
e 787 816
e 787 818
e 787 820
e 787 824
e 787 833
e 787 840
e 787 857
e 787 869
e 787 873
e 787 883
e 787 886
e 787 895
e 787 897
e 787 908
e 787 934
e 787 939
e 787 940
e 787 947
e 787 968
e 787 980
e 787 995
e 788 817
e 788 845
e 788 849
e 788 852
e 788 863
e 788 865
e 788 868
e 788 875
e 788 879
e 788 880
e 788 899
e 788 903
e 788 913
e 788 920
e 788 933
e 788 936
e 788 937
e 788 946
e 788 948
e 788 954
e 788 967
e 788 982
e 788 983
e 788 987
e 788 993
e 789 795
e 789 805
e 789 823
e 789 825
e 789 833
e 789 836
e 789 856
e 789 860
e 789 863
e 789 866
e 789 868
e 789 887
e 789 895
e 789 901
e 789 902
e 789 916
e 789 944
e 789 947
e 789 951
e 789 960
e 789 962
e 789 967
e 789 987
e 789 988
e 790 794
e 790 805
e 790 823
e 790 827
e 790 831
e 790 838
e 790 859
e 790 864
e 790 866
e 790 908
e 790 913
e 790 920
e 790 946
e 790 949
e 790 956
e 790 970
e 790 973
e 790 998
e 791 800
e 791 801
e 791 807
e 791 813
e 791 814
e 791 818
e 791 831
e 791 847
e 791 858
e 791 862
e 791 870
e 791 871
e 791 876
e 791 878
e 791 892
e 791 926
e 791 929
e 791 930
e 791 950
e 791 952
e 791 961
e 791 971
e 791 975
e 791 992
e 791 994
e 791 997
e 792 809
e 792 821
e 792 826
e 792 831
e 792 843
e 792 847
e 792 861
e 792 890
e 792 916
e 792 917
e 792 922
e 792 929
e 792 937
e 792 960
e 792 972
e 792 995
e 793 813
e 793 826
e 793 870
e 793 872
e 793 889
e 793 897
e 793 905
e 793 912
e 793 914
e 793 915
e 793 919
e 793 932
e 793 935
e 793 937
e 793 939
e 793 961
e 793 964
e 793 996
e 794 798
e 794 799
e 794 802
e 794 804
e 794 807
e 794 828
e 794 829
e 794 834
e 794 842
e 794 849
e 794 854
e 794 875
e 794 882
e 794 889
e 794 905
e 794 921
e 794 923
e 794 926
e 794 927
e 794 932
e 794 933
e 794 936
e 794 940
e 794 941
e 794 944
e 794 954
e 794 959
e 794 988
e 794 997
e 794 999
e 795 804
e 795 856
e 795 863
e 795 868
e 795 903
e 795 921
e 795 950
e 795 951
e 795 952
e 795 967
e 795 982
e 795 1000
e 796 801
e 796 803
e 796 806
e 796 815
e 796 828
e 796 830
e 796 831
e 796 846
e 796 851
e 796 860
e 796 862
e 796 868
e 796 883
e 796 886
e 796 889
e 796 892
e 796 897
e 796 899
e 796 911
e 796 915
e 796 926
e 796 929
e 796 938
e 796 941
e 796 942
e 796 943
e 796 964
e 796 965
e 796 966
e 796 977
e 796 979
e 796 982
e 796 986
e 796 992
e 797 832
e 797 840
e 797 842
e 797 858
e 797 863
e 797 867
e 797 875
e 797 876
e 797 879
e 797 890
e 797 907
e 797 908
e 797 911
e 797 912
e 797 917
e 797 921
e 797 934
e 797 940
e 797 942
e 797 946
e 797 951
e 797 986
e 798 813
e 798 814
e 798 815
e 798 819
e 798 841
e 798 849
e 798 870
e 798 872
e 798 898
e 798 900
e 798 948
e 798 955
e 798 958
e 798 984
e 798 996
e 799 824
e 799 829
e 799 840
e 799 842
e 799 871
e 799 879
e 799 885
e 799 891
e 799 896
e 799 902
e 799 933
e 799 936
e 799 948
e 799 968
e 799 971
e 799 973
e 799 976
e 799 977
e 800 806
e 800 808
e 800 833
e 800 839
e 800 843
e 800 852
e 800 874
e 800 875
e 800 876
e 800 878
e 800 902
e 800 938
e 800 946
e 800 950
e 800 970
e 800 981
e 800 996
e 801 811
e 801 828
e 801 842
e 801 848
e 801 864
e 801 884
e 801 891
e 801 893
e 801 894
e 801 903
e 801 915
e 801 921
e 801 922
e 801 924
e 801 925
e 801 926
e 801 927
e 801 931
e 801 933
e 801 939
e 801 960
e 801 975
e 801 980
e 801 981
e 801 987
e 801 990
e 801 991
e 801 999
e 802 810
e 802 822
e 802 823
e 802 832
e 802 860
e 802 878
e 802 880
e 802 881
e 802 891
e 802 903
e 802 911
e 802 921
e 802 956
e 802 959
e 802 970
e 802 974
e 802 990
e 802 992
e 802 995
e 802 997
e 803 811
e 803 814
e 803 824
e 803 841
e 803 854
e 803 856
e 803 863
e 803 869
e 803 879
e 803 884
e 803 885
e 803 900
e 803 912
e 803 925
e 803 948
e 803 949
e 803 951
e 803 952
e 803 975
e 803 982
e 804 812
e 804 813
e 804 827
e 804 833
e 804 838
e 804 840
e 804 861
e 804 868
e 804 873
e 804 885
e 804 910
e 804 917
e 804 939
e 804 958
e 804 962
e 804 969
e 804 976
e 804 982
e 804 992
e 804 1000
e 805 810
e 805 812
e 805 830
e 805 835
e 805 848
e 805 866
e 805 877
e 805 879
e 805 890
e 805 902
e 805 903
e 805 908
e 805 911
e 805 919
e 805 922
e 805 927
e 805 963
e 805 969
e 805 995
e 805 997
e 805 998
e 806 807
e 806 818
e 806 822
e 806 834
e 806 850
e 806 859
e 806 868
e 806 875
e 806 885
e 806 887
e 806 897
e 806 898
e 806 907
e 806 943
e 806 969
e 806 974
e 806 977
e 806 987
e 806 989
e 806 995
e 807 810
e 807 813
e 807 818
e 807 828
e 807 844
e 807 850
e 807 852
e 807 877
e 807 879
e 807 902
e 807 907
e 807 925
e 807 928
e 807 930
e 807 940
e 807 942
e 807 944
e 807 950
e 807 951
e 807 967
e 807 969
e 807 992
e 807 1000
e 808 830
e 808 836
e 808 844
e 808 850
e 808 856
e 808 857
e 808 860
e 808 878
e 808 882
e 808 883
e 808 892
e 808 913
e 808 914
e 808 929
e 808 939
e 808 952
e 808 953
e 808 957
e 808 960
e 808 971
e 808 991
e 809 824
e 809 833
e 809 848
e 809 854
e 809 855
e 809 859
e 809 879
e 809 886
e 809 892
e 809 908
e 809 929
e 809 942
e 809 956
e 809 963
e 809 967
e 809 970
e 809 975
e 809 994
e 809 997
e 810 814
e 810 823
e 810 827
e 810 842
e 810 872
e 810 886
e 810 898
e 810 916
e 810 917
e 810 929
e 810 947
e 810 958
e 810 967
e 810 995
e 810 996
e 811 821
e 811 845
e 811 855
e 811 856
e 811 873
e 811 883
e 811 884
e 811 889
e 811 919
e 811 922
e 811 930
e 811 931
e 811 952
e 811 954
e 811 962
e 811 970
e 811 981
e 812 838
e 812 842
e 812 858
e 812 867
e 812 870
e 812 876
e 812 887
e 812 894
e 812 908
e 812 909
e 812 932
e 812 949
e 812 953
e 812 954
e 812 974
e 812 984
e 812 993
e 813 829
e 813 835
e 813 855
e 813 872
e 813 897
e 813 909
e 813 912
e 813 962
e 813 976
e 813 985
e 813 989
e 813 994
e 814 815
e 814 832
e 814 841
e 814 843
e 814 852
e 814 874
e 814 890
e 814 891
e 814 892
e 814 898
e 814 900
e 814 907
e 814 910
e 814 918
e 814 926
e 814 932
e 814 933
e 814 934
e 814 935
e 814 948
e 814 957
e 814 959
e 814 962
e 814 964
e 814 969
e 814 979
e 814 991
e 815 822
e 815 837
e 815 843
e 815 846
e 815 875
e 815 879
e 815 880
e 815 891
e 815 896
e 815 898
e 815 908
e 815 909
e 815 982
e 815 986
e 815 997
e 816 832
e 816 834
e 816 840
e 816 843
e 816 861
e 816 869
e 816 882
e 816 886
e 816 901
e 816 904
e 816 924
e 816 932
e 816 951
e 816 961
e 816 968
e 816 972
e 816 989
e 816 999
e 817 822
e 817 828
e 817 831
e 817 844
e 817 849
e 817 852
e 817 854
e 817 858
e 817 867
e 817 873
e 817 878
e 817 883
e 817 885
e 817 913
e 817 922
e 817 924
e 817 939
e 817 949
e 817 959
e 817 979
e 817 996
e 818 820
e 818 822
e 818 828
e 818 836
e 818 839
e 818 862
e 818 864
e 818 866
e 818 867
e 818 870
e 818 874
e 818 886
e 818 936
e 818 958
e 818 961
e 819 838
e 819 851
e 819 861
e 819 865
e 819 868
e 819 886
e 819 888
e 819 890
e 819 913
e 819 919
e 819 956
e 819 958
e 819 963
e 819 965
e 819 981
e 819 984
e 820 821
e 820 853
e 820 854
e 820 867
e 820 882
e 820 887
e 820 889
e 820 892
e 820 893
e 820 903
e 820 918
e 820 921
e 820 930
e 820 934
e 820 953
e 820 962
e 820 965
e 820 971
e 820 972
e 820 975
e 820 984
e 820 991
e 821 828
e 821 829
e 821 830
e 821 835
e 821 836
e 821 859
e 821 877
e 821 886
e 821 889
e 821 890
e 821 893
e 821 896
e 821 898
e 821 908
e 821 943
e 821 950
e 821 953
e 821 966
e 821 969
e 821 975
e 821 980
e 821 981
e 821 992
e 821 997
e 822 823
e 822 833
e 822 841
e 822 856
e 822 861
e 822 884
e 822 887
e 822 898
e 822 910
e 822 913
e 822 917
e 822 921
e 822 938
e 822 947
e 822 960
e 822 966
e 822 968
e 822 974
e 822 986
e 823 831
e 823 840
e 823 860
e 823 863
e 823 872
e 823 886
e 823 888
e 823 895
e 823 897
e 823 914
e 823 920
e 823 924
e 823 926
e 823 929
e 823 931
e 823 936
e 823 937
e 823 951
e 823 953
e 823 957
e 823 958
e 823 962
e 823 978
e 823 984
e 823 991
e 823 993
e 824 845
e 824 853
e 824 870
e 824 872
e 824 877
e 824 880
e 824 906
e 824 909
e 824 913
e 824 923
e 824 926
e 824 937
e 824 952
e 824 959
e 824 967
e 824 970
e 824 977
e 824 979
e 824 988
e 824 990
e 824 999
e 825 826
e 825 836
e 825 837
e 825 841
e 825 877
e 825 880
e 825 888
e 825 908
e 825 919
e 825 932
e 825 937
e 825 941
e 825 945
e 825 951
e 825 972
e 825 980
e 826 828
e 826 829
e 826 831
e 826 839
e 826 840
e 826 860
e 826 866
e 826 882
e 826 922
e 826 923
e 826 931
e 826 932
e 826 946
e 826 953
e 826 962
e 826 963
e 826 966
e 826 971
e 826 978
e 826 984
e 826 997
e 826 998
e 827 853
e 827 859
e 827 864
e 827 870
e 827 871
e 827 889
e 827 903
e 827 907
e 827 922
e 827 923
e 827 945
e 827 948
e 827 955
e 827 968
e 827 976
e 827 990
e 827 997
e 828 832
e 828 847
e 828 860
e 828 878
e 828 888
e 828 892
e 828 901
e 828 904
e 828 906
e 828 909
e 828 910
e 828 911
e 828 946
e 828 949
e 828 950
e 828 953
e 828 954
e 828 966
e 828 971
e 829 831
e 829 837
e 829 839
e 829 846
e 829 854
e 829 877
e 829 879
e 829 897
e 829 904
e 829 915
e 829 916
e 829 918
e 829 933
e 829 936
e 829 938
e 829 942
e 829 950
e 829 951
e 829 958
e 829 978
e 829 997
e 830 831
e 830 833
e 830 846
e 830 848
e 830 855
e 830 861
e 830 864
e 830 867
e 830 885
e 830 889
e 830 895
e 830 916
e 830 933
e 830 935
e 830 940
e 830 943
e 830 950
e 830 954
e 830 957
e 830 967
e 830 971
e 831 850
e 831 851
e 831 869
e 831 873
e 831 877
e 831 880
e 831 882
e 831 886
e 831 910
e 831 927
e 831 960
e 831 963
e 831 987
e 831 990
e 832 841
e 832 843
e 832 869
e 832 871
e 832 885
e 832 896
e 832 907
e 832 915
e 832 922
e 832 931
e 832 935
e 832 936
e 832 937
e 832 943
e 832 946
e 832 950
e 832 972
e 832 980
e 832 981
e 833 836
e 833 845
e 833 854
e 833 862
e 833 875
e 833 900
e 833 905
e 833 920
e 833 927
e 833 929
e 833 932
e 833 934
e 833 941
e 833 948
e 833 957
e 833 968
e 833 969
e 833 986
e 834 838
e 834 856
e 834 859
e 834 865
e 834 867
e 834 877
e 834 879
e 834 900
e 834 911
e 834 915
e 834 922
e 834 924
e 834 941
e 834 969
e 834 972
e 834 992
e 834 997
e 835 836
e 835 840
e 835 843
e 835 847
e 835 855
e 835 856
e 835 857
e 835 864
e 835 877
e 835 902
e 835 912
e 835 913
e 835 928
e 835 929
e 835 933
e 835 934
e 835 950
e 835 956
e 835 957
e 835 959
e 835 972
e 835 986
e 835 987
e 835 990
e 835 991
e 835 996
e 836 841
e 836 865
e 836 869
e 836 910
e 836 911
e 836 933
e 836 934
e 836 938
e 836 958
e 836 967
e 836 974
e 836 978
e 836 995
e 836 1000
e 837 845
e 837 847
e 837 867
e 837 871
e 837 875
e 837 905
e 837 912
e 837 914
e 837 919
e 837 952
e 837 958
e 837 964
e 837 983
e 837 984
e 837 986
e 837 988
e 837 999
e 838 842
e 838 859
e 838 865
e 838 886
e 838 895
e 838 911
e 838 936
e 838 946
e 838 962
e 838 968
e 838 977
e 838 997
e 839 855
e 839 856
e 839 893
e 839 913
e 839 919
e 839 923
e 839 931
e 839 938
e 839 942
e 839 945
e 839 950
e 839 953
e 839 954
e 839 969
e 839 982
e 839 992
e 839 997
e 840 844
e 840 849
e 840 893
e 840 913
e 840 917
e 840 929
e 840 942
e 840 946
e 840 965
e 840 980
e 840 996
e 840 1000
e 841 844
e 841 846
e 841 861
e 841 867
e 841 875
e 841 878
e 841 912
e 841 934
e 841 944
e 841 958
e 841 959
e 841 972
e 841 985
e 841 989
e 841 991
e 841 992
e 841 999
e 842 850
e 842 855
e 842 858
e 842 878
e 842 879
e 842 884
e 842 891
e 842 893
e 842 899
e 842 903
e 842 905
e 842 908
e 842 911
e 842 916
e 842 941
e 842 960
e 842 962
e 842 963
e 842 969
e 842 972
e 842 976
e 842 991
e 842 994
e 843 852
e 843 866
e 843 869
e 843 874
e 843 882
e 843 899
e 843 901
e 843 902
e 843 904
e 843 916
e 843 917
e 843 926
e 843 939
e 843 950
e 843 984
e 843 993
e 843 997
e 844 845
e 844 853
e 844 854
e 844 859
e 844 876
e 844 882
e 844 904
e 844 930
e 844 946
e 844 958
e 844 966
e 844 991
e 845 860
e 845 869
e 845 898
e 845 910
e 845 911
e 845 929
e 845 933
e 845 972
e 845 974
e 845 975
e 845 978
e 845 981
e 845 988
e 846 856
e 846 861
e 846 891
e 846 900
e 846 901
e 846 910
e 846 922
e 846 929
e 846 933
e 846 944
e 846 947
e 846 953
e 846 954
e 846 966
e 846 975
e 846 978
e 846 981
e 846 982
e 846 983
e 846 984
e 846 987
e 846 988
e 846 990
e 846 993
e 847 864
e 847 899
e 847 946
e 847 949
e 847 979
e 847 987
e 848 850
e 848 851
e 848 862
e 848 865
e 848 872
e 848 878
e 848 879
e 848 895
e 848 902
e 848 912
e 848 917
e 848 933
e 848 940
e 848 948
e 848 952
e 848 953
e 848 975
e 849 856
e 849 864
e 849 865
e 849 877
e 849 883
e 849 892
e 849 898
e 849 908
e 849 933
e 849 937
e 849 947
e 849 955
e 849 983
e 850 855
e 850 865
e 850 894
e 850 913
e 850 919
e 850 926
e 850 937
e 850 962
e 850 970
e 850 973
e 850 977
e 850 979
e 850 982
e 850 984
e 851 861
e 851 862
e 851 868
e 851 871
e 851 875
e 851 895
e 851 908
e 851 921
e 851 932
e 851 933
e 851 940
e 851 943
e 851 944
e 851 948
e 851 965
e 851 978
e 851 979
e 851 984
e 851 998
e 852 878
e 852 880
e 852 907
e 852 930
e 852 935
e 852 944
e 852 973
e 852 976
e 852 982
e 853 860
e 853 865
e 853 867
e 853 868
e 853 887
e 853 890
e 853 903
e 853 906
e 853 908
e 853 917
e 853 922
e 853 931
e 853 932
e 853 935
e 853 936
e 853 942
e 853 944
e 853 972
e 853 976
e 853 989
e 854 860
e 854 865
e 854 867
e 854 872
e 854 883
e 854 884
e 854 889
e 854 910
e 854 921
e 854 922
e 854 923
e 854 924
e 854 930
e 854 953
e 854 958
e 854 971
e 854 994
e 854 1000
e 855 859
e 855 866
e 855 877
e 855 879
e 855 899
e 855 908
e 855 911
e 855 912
e 855 929
e 855 934
e 855 953
e 855 971
e 855 985
e 856 863
e 856 866
e 856 895
e 856 896
e 856 906
e 856 921
e 856 926
e 856 944
e 856 949
e 856 958
e 856 968
e 856 971
e 856 978
e 856 989
e 857 868
e 857 875
e 857 876
e 857 878
e 857 881
e 857 898
e 857 913
e 857 915
e 857 917
e 857 922
e 857 923
e 857 927
e 857 932
e 857 967
e 857 992
e 857 995
e 858 859
e 858 860
e 858 876
e 858 887
e 858 891
e 858 903
e 858 908
e 858 911
e 858 925
e 858 932
e 858 944
e 858 947
e 858 955
e 858 972
e 858 973
e 858 981
e 858 984
e 858 993
e 859 875
e 859 888
e 859 894
e 859 895
e 859 897
e 859 900
e 859 901
e 859 937
e 859 939
e 859 943
e 859 953
e 859 956
e 859 957
e 859 966
e 859 969
e 859 970
e 859 994
e 859 995
e 859 999
e 860 879
e 860 931
e 860 936
e 860 937
e 860 952
e 860 961
e 860 993
e 860 998
e 861 872
e 861 875
e 861 877
e 861 880
e 861 889
e 861 897
e 861 900
e 861 916
e 861 938
e 861 939
e 861 948
e 861 966
e 861 988
e 861 997
e 861 998
e 861 999
e 862 871
e 862 883
e 862 893
e 862 895
e 862 900
e 862 914
e 862 940
e 862 943
e 862 971
e 862 993
e 862 997
e 863 871
e 863 890
e 863 892
e 863 908
e 863 914
e 863 917
e 863 920
e 863 924
e 863 977
e 863 979
e 863 988
e 864 866
e 864 874
e 864 881
e 864 898
e 864 935
e 864 936
e 864 938
e 864 943
e 864 952
e 864 956
e 864 967
e 864 982
e 864 983
e 864 999
e 865 873
e 865 879
e 865 882
e 865 888
e 865 891
e 865 894
e 865 903
e 865 909
e 865 916
e 865 918
e 865 936
e 865 938
e 865 941
e 865 942
e 865 973
e 865 984
e 865 999
e 866 876
e 866 882
e 866 883
e 866 901
e 866 906
e 866 929
e 866 930
e 866 932
e 866 934
e 866 955
e 866 965
e 866 966
e 866 975
e 866 988
e 867 879
e 867 892
e 867 899
e 867 904
e 867 923
e 867 934
e 867 955
e 868 872
e 868 908
e 868 911
e 868 918
e 868 919
e 868 948
e 868 964
e 868 975
e 869 882
e 869 916
e 869 921
e 869 940
e 869 946
e 869 949
e 869 965
e 869 972
e 869 979
e 870 884
e 870 893
e 870 896
e 870 899
e 870 900
e 870 905
e 870 914
e 870 920
e 870 928
e 870 929
e 870 941
e 870 983
e 870 994
e 870 998
e 871 875
e 871 896
e 871 907
e 871 911
e 871 914
e 871 924
e 871 926
e 871 941
e 871 950
e 871 965
e 871 973
e 871 976
e 871 984
e 871 985
e 872 891
e 872 903
e 872 906
e 872 916
e 872 924
e 872 928
e 872 934
e 872 936
e 872 947
e 872 970
e 872 973
e 872 984
e 872 985
e 872 1000
e 873 882
e 873 884
e 873 916
e 873 952
e 873 966
e 873 967
e 874 878
e 874 884
e 874 907
e 874 915
e 874 919
e 874 936
e 874 956
e 874 957
e 874 962
e 874 969
e 874 971
e 874 993
e 874 998
e 875 895
e 875 898
e 875 911
e 875 917
e 875 930
e 875 931
e 875 937
e 875 961
e 875 973
e 875 974
e 875 976
e 875 979
e 876 882
e 876 888
e 876 902
e 876 905
e 876 915
e 876 917
e 876 923
e 876 925
e 876 949
e 876 954
e 876 965
e 876 971
e 876 979
e 876 991
e 876 996
e 876 997
e 877 879
e 877 888
e 877 895
e 877 901
e 877 908
e 877 911
e 877 922
e 877 959
e 877 983
e 877 988
e 877 990
e 877 994
e 878 911
e 878 921
e 878 924
e 878 932
e 878 940
e 878 944
e 878 945
e 878 963
e 878 976
e 879 890
e 879 891
e 879 917
e 879 925
e 879 931
e 879 969
e 879 984
e 879 990
e 879 992
e 879 1000
e 880 884
e 880 886
e 880 889
e 880 899
e 880 912
e 880 914
e 880 926
e 880 937
e 880 944
e 880 970
e 880 990
e 881 916
e 881 923
e 881 933
e 881 941
e 881 942
e 881 955
e 881 961
e 881 968
e 881 972
e 881 974
e 881 979
e 881 982
e 881 989
e 881 995
e 882 889
e 882 893
e 882 898
e 882 905
e 882 914
e 882 916
e 882 932
e 882 934
e 882 937
e 882 952
e 882 955
e 882 961
e 882 967
e 882 983
e 882 985
e 882 992
e 882 997
e 883 887
e 883 888
e 883 902
e 883 920
e 883 928
e 883 950
e 883 962
e 883 970
e 883 987
e 884 892
e 884 918
e 884 930
e 884 938
e 884 968
e 884 975
e 884 994
e 885 900
e 885 901
e 885 902
e 885 920
e 885 926
e 885 927
e 885 943
e 885 950
e 885 951
e 885 966
e 885 972
e 886 891
e 886 912
e 886 916
e 886 921
e 886 927
e 886 945
e 886 953
e 886 958
e 886 981
e 886 996
e 886 1000
e 887 890
e 887 894
e 887 896
e 887 909
e 887 912
e 887 935
e 887 936
e 887 939
e 887 944
e 887 946
e 887 949
e 887 971
e 887 988
e 887 991
e 887 996
e 888 894
e 888 895
e 888 900
e 888 905
e 888 910
e 888 911
e 888 928
e 888 952
e 888 953
e 888 960
e 888 976
e 888 985
e 889 923
e 889 924
e 889 930
e 889 936
e 889 955
e 889 956
e 889 976
e 889 977
e 889 981
e 890 913
e 890 941
e 890 946
e 890 950
e 890 954
e 890 957
e 890 966
e 890 967
e 890 970
e 890 979
e 891 901
e 891 908
e 891 913
e 891 935
e 891 936
e 891 938
e 891 955
e 891 961
e 891 962
e 891 965
e 891 971
e 891 981
e 892 894
e 892 895
e 892 935
e 892 958
e 892 992
e 892 993
e 893 898
e 893 923
e 893 929
e 893 936
e 893 944
e 893 948
e 893 975
e 893 979
e 893 980
e 893 986
e 893 991
e 894 899
e 894 912
e 894 915
e 894 920
e 894 963
e 894 968
e 895 905
e 895 910
e 895 922
e 895 929
e 895 931
e 895 947
e 895 957
e 895 975
e 895 978
e 895 989
e 895 993
e 895 998
e 896 897
e 896 900
e 896 906
e 896 911
e 896 919
e 896 931
e 896 934
e 896 936
e 896 944
e 896 947
e 896 967
e 896 978
e 896 994
e 897 901
e 897 906
e 897 907
e 897 939
e 897 945
e 897 947
e 897 957
e 898 899
e 898 902
e 898 909
e 898 927
e 898 935
e 898 946
e 898 954
e 898 957
e 898 960
e 898 971
e 898 976
e 898 981
e 898 988
e 898 993
e 898 994
e 898 998
e 899 918
e 899 931
e 899 935
e 899 941
e 899 950
e 899 958
e 899 964
e 899 971
e 899 976
e 899 986
e 899 998
e 900 915
e 900 921
e 900 927
e 900 929
e 900 941
e 900 956
e 900 965
e 900 969
e 900 973
e 900 978
e 900 982
e 900 987
e 900 998
e 901 913
e 901 921
e 901 940
e 901 964
e 901 970
e 901 978
e 901 983
e 901 984
e 902 932
e 902 937
e 902 951
e 902 956
e 902 960
e 902 968
e 902 970
e 902 982
e 902 988
e 902 989
e 902 997
e 903 904
e 903 911
e 903 924
e 903 954
e 903 972
e 903 979
e 903 982
e 903 985
e 903 992
e 904 915
e 904 916
e 904 949
e 904 954
e 904 968
e 904 972
e 904 978
e 904 979
e 904 983
e 904 988
e 904 991
e 905 928
e 905 930
e 905 940
e 905 948
e 905 952
e 905 969
e 905 974
e 905 977
e 905 1000
e 906 914
e 906 923
e 906 944
e 906 950
e 906 970
e 906 973
e 906 974
e 906 986
e 906 990
e 907 928
e 907 935
e 907 940
e 907 942
e 907 946
e 907 953
e 907 960
e 907 965
e 907 971
e 907 997
e 908 909
e 908 912
e 908 914
e 908 925
e 908 927
e 908 933
e 908 939
e 908 943
e 908 958
e 908 982
e 909 913
e 909 918
e 909 926
e 909 929
e 909 935
e 909 942
e 909 952
e 909 959
e 909 967
e 909 970
e 909 976
e 910 917
e 910 918
e 910 936
e 910 940
e 910 955
e 910 979
e 910 991
e 910 997
e 910 999
e 911 925
e 911 927
e 911 933
e 911 940
e 911 956
e 911 964
e 911 967
e 911 972
e 911 985
e 911 988
e 912 918
e 912 946
e 912 950
e 912 962
e 912 971
e 912 979
e 912 981
e 912 984
e 912 996
e 912 998
e 913 921
e 913 923
e 913 950
e 913 955
e 913 961
e 913 962
e 913 964
e 913 966
e 913 970
e 913 971
e 913 982
e 913 988
e 914 922
e 914 932
e 914 936
e 914 950
e 914 951
e 914 953
e 914 954
e 914 956
e 914 977
e 914 994
e 915 926
e 915 928
e 915 950
e 915 959
e 915 985
e 915 995
e 916 918
e 916 920
e 916 930
e 916 977
e 916 991
e 917 930
e 917 954
e 917 955
e 917 975
e 917 980
e 917 989
e 918 940
e 918 941
e 918 945
e 918 953
e 918 963
e 918 974
e 918 976
e 918 994
e 919 922
e 919 927
e 919 932
e 919 937
e 919 941
e 919 949
e 919 958
e 919 966
e 919 996
e 919 999
e 920 925
e 920 929
e 920 934
e 920 945
e 920 962
e 920 973
e 920 974
e 920 980
e 920 982
e 921 925
e 921 926
e 921 956
e 921 979
e 922 932
e 922 934
e 922 986
e 922 994
e 922 995
e 922 999
e 923 933
e 923 935
e 923 964
e 923 999
e 924 926
e 924 929
e 924 941
e 924 946
e 924 976
e 924 988
e 924 992
e 924 995
e 925 933
e 925 938
e 925 950
e 925 956
e 925 962
e 925 973
e 925 977
e 925 979
e 925 984
e 925 985
e 925 997
e 926 941
e 926 964
e 926 974
e 926 986
e 926 994
e 926 1000
e 927 934
e 927 935
e 927 937
e 927 940
e 927 954
e 927 970
e 927 972
e 927 977
e 927 984
e 928 929
e 928 931
e 928 943
e 928 948
e 928 953
e 928 966
e 928 979
e 928 1000
e 929 941
e 929 944
e 929 951
e 929 970
e 929 975
e 929 978
e 929 988
e 930 943
e 930 951
e 930 953
e 930 978
e 930 983
e 930 987
e 931 953
e 931 955
e 931 957
e 931 959
e 931 962
e 931 971
e 932 936
e 932 941
e 932 943
e 932 946
e 932 958
e 932 963
e 932 994
e 932 997
e 933 937
e 933 943
e 933 997
e 934 950
e 934 963
e 934 965
e 934 985
e 934 987
e 934 989
e 935 940
e 935 942
e 935 945
e 935 968
e 935 989
e 935 992
e 935 997
e 936 967
e 936 972
e 936 973
e 936 975
e 936 982
e 936 991
e 936 998
e 937 939
e 937 950
e 937 964
e 937 970
e 937 974
e 937 995
e 938 947
e 938 980
e 938 984
e 938 1000
e 939 945
e 939 951
e 939 955
e 939 961
e 939 972
e 939 975
e 939 978
e 939 979
e 939 990
e 939 997
e 940 970
e 940 984
e 941 948
e 941 949
e 941 950
e 941 959
e 941 960
e 941 961
e 941 968
e 941 990
e 941 998
e 941 1000
e 942 952
e 942 957
e 942 977
e 942 1000
e 943 958
e 943 976
e 943 977
e 943 983
e 943 987
e 943 988
e 944 963
e 944 968
e 944 970
e 944 975
e 945 952
e 945 955
e 945 961
e 945 969
e 945 973
e 945 990
e 946 963
e 946 983
e 947 948
e 947 949
e 947 976
e 947 981
e 947 991
e 948 976
e 948 987
e 948 997
e 949 950
e 949 964
e 949 981
e 949 982
e 949 996
e 949 1000
e 950 954
e 950 956
e 950 970
e 951 954
e 951 956
e 951 959
e 951 976
e 952 955
e 952 957
e 952 963
e 952 969
e 952 976
e 952 979
e 952 995
e 953 956
e 953 962
e 953 971
e 953 976
e 953 977
e 953 979
e 953 983
e 953 985
e 954 963
e 954 966
e 954 968
e 954 986
e 954 989
e 954 993
e 954 994
e 954 1000
e 955 981
e 955 983
e 955 985
e 955 987
e 955 998
e 955 1000
e 956 969
e 956 971
e 956 976
e 956 983
e 956 996
e 956 997
e 957 960
e 957 965
e 957 973
e 957 982
e 957 983
e 957 984
e 957 991
e 957 992
e 958 960
e 958 965
e 958 969
e 958 970
e 958 972
e 958 975
e 958 982
e 959 962
e 959 968
e 959 969
e 959 976
e 959 980
e 960 963
e 960 987
e 961 969
e 961 980
e 961 986
e 961 990
e 961 996
e 962 963
e 962 974
e 962 989
e 962 991
e 963 964
e 963 968
e 963 975
e 963 997
e 964 965
e 964 967
e 964 971
e 964 983
e 965 967
e 965 975
e 965 981
e 965 989
e 966 981
e 966 985
e 966 997
e 967 976
e 967 987
e 969 988
e 969 993
e 969 997
e 969 999
e 970 987
e 970 997
e 970 1000
e 971 980
e 972 983
e 972 993
e 973 975
e 973 996
e 973 998
e 974 993
e 975 979
e 975 981
e 975 990
e 975 998
e 975 1000
e 976 988
e 976 995
e 977 980
e 977 983
e 977 992
e 978 984
e 978 990
e 978 998
e 980 982
e 980 994
e 981 987
e 981 992
e 982 987
e 982 995
e 982 998
e 984 991
e 985 997
e 987 989
e 987 993
e 987 994
e 987 995
e 988 997
e 989 991
e 989 997
e 989 998
e 993 1000
e 995 996
e 995 997
e 997 999
e 998 1000
