c Converted from gc_100_1
c Source format: '<vertices> <edges>' header followed by integer edge pairs
p edge 100 482
e 1 5
e 1 35
e 1 50
e 1 53
e 1 56
e 1 69
e 1 81
e 1 94
e 2 4
e 2 15
e 2 37
e 2 50
e 2 64
e 2 65
e 2 66
e 2 80
e 2 84
e 2 92
e 2 94
e 2 95
e 3 12
e 3 18
e 3 29
e 3 32
e 3 56
e 3 71
e 4 22
e 4 28
e 4 40
e 4 54
e 4 55
e 4 60
e 4 62
e 4 69
e 4 81
e 4 84
e 4 88
e 4 90
e 4 92
e 4 94
e 5 26
e 5 30
e 5 37
e 5 39
e 5 46
e 5 91
e 5 92
e 5 97
e 6 10
e 6 11
e 6 26
e 6 36
e 6 56
e 6 57
e 6 67
e 6 70
e 6 71
e 6 75
e 6 78
e 6 85
e 6 97
e 6 100
e 7 11
e 7 19
e 7 27
e 7 45
e 7 83
e 7 84
e 7 100
e 8 15
e 8 22
e 8 38
e 8 77
e 8 79
e 8 89
e 8 94
e 9 23
e 9 27
e 9 41
e 9 44
e 9 54
e 9 71
e 9 93
e 10 66
e 10 81
e 10 91
e 11 16
e 11 17
e 11 40
e 11 41
e 11 47
e 11 48
e 11 51
e 11 72
e 11 75
e 11 83
e 12 19
e 12 21
e 12 24
e 12 42
e 12 43
e 12 49
e 12 54
e 12 57
e 12 64
e 12 72
e 12 74
e 12 78
e 12 81
e 12 82
e 13 22
e 13 23
e 13 37
e 13 46
e 13 58
e 13 73
e 13 88
e 13 89
e 13 92
e 13 95
e 13 100
e 14 18
e 14 25
e 14 72
e 14 80
e 14 100
e 15 25
e 15 28
e 15 36
e 15 49
e 15 54
e 15 70
e 15 78
e 15 83
e 15 86
e 15 89
e 15 97
e 16 34
e 16 42
e 16 43
e 16 46
e 16 53
e 16 55
e 16 57
e 16 76
e 16 90
e 16 94
e 17 20
e 17 28
e 17 31
e 17 52
e 17 87
e 18 50
e 18 65
e 18 83
e 18 89
e 18 95
e 18 100
e 19 28
e 19 29
e 19 56
e 19 63
e 19 66
e 19 96
e 20 21
e 20 37
e 20 38
e 20 47
e 20 50
e 20 51
e 20 78
e 20 94
e 20 97
e 21 26
e 21 32
e 21 34
e 21 57
e 21 82
e 21 89
e 22 33
e 22 38
e 22 46
e 22 47
e 22 69
e 22 70
e 22 81
e 22 90
e 23 30
e 23 35
e 23 50
e 23 58
e 23 63
e 23 83
e 23 89
e 23 91
e 23 96
e 24 26
e 24 30
e 24 34
e 24 42
e 24 46
e 24 63
e 24 65
e 24 77
e 24 84
e 24 91
e 25 27
e 25 37
e 25 42
e 25 44
e 25 72
e 25 81
e 25 84
e 25 93
e 25 99
e 26 38
e 26 53
e 26 61
e 26 63
e 26 67
e 26 81
e 26 94
e 27 29
e 27 36
e 27 40
e 27 66
e 27 80
e 27 82
e 27 88
e 27 91
e 27 93
e 28 38
e 28 48
e 28 57
e 28 63
e 28 72
e 28 84
e 28 90
e 28 91
e 29 32
e 29 33
e 29 52
e 29 57
e 29 62
e 29 69
e 29 83
e 30 32
e 30 40
e 30 59
e 30 62
e 30 82
e 30 84
e 30 91
e 31 33
e 31 47
e 31 51
e 31 58
e 31 63
e 31 64
e 31 65
e 31 81
e 31 84
e 32 49
e 32 60
e 32 77
e 33 35
e 33 36
e 33 39
e 33 50
e 33 59
e 33 86
e 33 88
e 34 42
e 34 45
e 34 48
e 34 52
e 34 58
e 34 63
e 34 65
e 34 75
e 34 83
e 34 94
e 34 95
e 34 99
e 35 47
e 35 48
e 35 50
e 35 76
e 35 83
e 35 87
e 35 89
e 35 96
e 36 51
e 36 65
e 36 74
e 36 81
e 36 85
e 36 86
e 36 96
e 37 47
e 37 48
e 37 54
e 37 69
e 37 71
e 37 75
e 37 87
e 37 89
e 37 96
e 38 45
e 38 68
e 38 97
e 39 59
e 39 61
e 39 66
e 39 77
e 39 92
e 40 62
e 40 63
e 40 91
e 41 56
e 41 68
e 41 79
e 41 89
e 41 93
e 41 94
e 42 48
e 42 51
e 42 60
e 42 64
e 42 68
e 42 88
e 42 89
e 42 97
e 43 50
e 43 59
e 43 73
e 43 85
e 44 48
e 44 60
e 44 75
e 44 77
e 44 80
e 44 91
e 44 99
e 45 46
e 45 51
e 45 53
e 45 54
e 45 59
e 45 65
e 45 79
e 45 90
e 45 95
e 45 99
e 46 48
e 46 74
e 46 89
e 46 99
e 47 56
e 47 81
e 47 86
e 47 87
e 47 96
e 47 100
e 48 51
e 48 69
e 48 75
e 48 77
e 48 88
e 49 50
e 49 52
e 49 55
e 49 57
e 49 89
e 49 95
e 50 57
e 50 65
e 50 66
e 50 86
e 50 88
e 50 93
e 51 75
e 52 89
e 52 90
e 52 94
e 53 54
e 53 75
e 53 97
e 54 58
e 54 65
e 54 73
e 54 83
e 55 62
e 55 70
e 55 80
e 55 83
e 55 84
e 55 87
e 55 94
e 56 66
e 57 67
e 57 78
e 58 67
e 58 68
e 58 96
e 59 71
e 59 77
e 59 78
e 60 69
e 60 87
e 60 88
e 60 93
e 61 72
e 61 75
e 61 79
e 61 93
e 61 100
e 63 70
e 63 89
e 63 98
e 64 70
e 64 87
e 65 71
e 65 83
e 66 76
e 67 80
e 67 88
e 68 79
e 68 80
e 68 91
e 68 92
e 69 81
e 69 89
e 69 98
e 70 71
e 70 72
e 70 74
e 71 74
e 71 81
e 71 85
e 71 89
e 71 98
e 73 84
e 73 91
e 75 84
e 76 78
e 76 91
e 76 92
e 76 93
e 77 81
e 77 100
e 78 81
e 78 86
e 78 92
e 78 93
e 78 98
e 79 81
e 79 83
e 80 82
e 80 93
e 81 97
e 82 83
e 82 94
e 82 97
e 83 87
e 83 94
e 84 85
e 84 92
e 84 93
e 84 94
e 85 86
e 85 95
e 86 88
e 87 93
e 87 94
e 88 95
e 90 95
e 90 97
e 90 99
e 93 98
e 95 100
e 96 99
