c Converted from gc_100_5
c Source format: '<vertices> <edges>' header followed by integer edge pairs
p edge 100 2502
e 1 3
e 1 10
e 1 12
e 1 16
e 1 17
e 1 18
e 1 19
e 1 21
e 1 23
e 1 24
e 1 27
e 1 31
e 1 32
e 1 33
e 1 36
e 1 40
e 1 41
e 1 42
e 1 44
e 1 45
e 1 46
e 1 48
e 1 52
e 1 56
e 1 57
e 1 58
e 1 59
e 1 60
e 1 61
e 1 64
e 1 66
e 1 68
e 1 69
e 1 70
e 1 71
e 1 74
e 1 77
e 1 78
e 1 79
e 1 80
e 1 83
e 1 84
e 1 86
e 1 87
e 1 90
e 1 93
e 1 95
e 1 97
e 2 4
e 2 5
e 2 6
e 2 7
e 2 9
e 2 12
e 2 13
e 2 15
e 2 16
e 2 18
e 2 23
e 2 25
e 2 26
e 2 29
e 2 31
e 2 34
e 2 35
e 2 36
e 2 37
e 2 38
e 2 40
e 2 44
e 2 45
e 2 46
e 2 54
e 2 63
e 2 65
e 2 68
e 2 69
e 2 72
e 2 75
e 2 77
e 2 79
e 2 81
e 2 82
e 2 84
e 2 85
e 2 86
e 2 90
e 2 96
e 2 98
e 3 5
e 3 6
e 3 7
e 3 8
e 3 9
e 3 14
e 3 16
e 3 19
e 3 20
e 3 21
e 3 25
e 3 27
e 3 28
e 3 29
e 3 30
e 3 32
e 3 35
e 3 39
e 3 41
e 3 47
e 3 48
e 3 49
e 3 50
e 3 51
e 3 53
e 3 54
e 3 56
e 3 59
e 3 60
e 3 64
e 3 68
e 3 72
e 3 73
e 3 74
e 3 75
e 3 76
e 3 78
e 3 79
e 3 84
e 3 85
e 3 90
e 3 92
e 3 93
e 3 98
e 3 99
e 4 5
e 4 6
e 4 7
e 4 9
e 4 10
e 4 12
e 4 13
e 4 16
e 4 19
e 4 22
e 4 24
e 4 26
e 4 27
e 4 28
e 4 29
e 4 30
e 4 31
e 4 32
e 4 34
e 4 40
e 4 41
e 4 42
e 4 45
e 4 47
e 4 51
e 4 53
e 4 54
e 4 55
e 4 56
e 4 57
e 4 59
e 4 61
e 4 62
e 4 65
e 4 66
e 4 67
e 4 70
e 4 71
e 4 72
e 4 73
e 4 74
e 4 75
e 4 79
e 4 80
e 4 81
e 4 82
e 4 83
e 4 85
e 4 88
e 4 89
e 4 90
e 4 91
e 4 92
e 4 93
e 4 95
e 5 8
e 5 9
e 5 11
e 5 12
e 5 13
e 5 14
e 5 16
e 5 17
e 5 19
e 5 20
e 5 24
e 5 27
e 5 28
e 5 29
e 5 31
e 5 32
e 5 33
e 5 34
e 5 35
e 5 36
e 5 37
e 5 40
e 5 42
e 5 43
e 5 44
e 5 45
e 5 46
e 5 47
e 5 49
e 5 50
e 5 52
e 5 53
e 5 55
e 5 58
e 5 59
e 5 60
e 5 63
e 5 64
e 5 66
e 5 67
e 5 69
e 5 70
e 5 72
e 5 75
e 5 76
e 5 78
e 5 80
e 5 81
e 5 84
e 5 87
e 5 88
e 5 89
e 5 91
e 5 94
e 5 96
e 5 97
e 5 98
e 5 100
e 6 12
e 6 13
e 6 14
e 6 16
e 6 17
e 6 18
e 6 21
e 6 22
e 6 27
e 6 28
e 6 30
e 6 32
e 6 34
e 6 35
e 6 36
e 6 37
e 6 39
e 6 41
e 6 42
e 6 43
e 6 44
e 6 46
e 6 47
e 6 49
e 6 55
e 6 60
e 6 61
e 6 62
e 6 65
e 6 69
e 6 72
e 6 73
e 6 74
e 6 75
e 6 76
e 6 78
e 6 82
e 6 83
e 6 84
e 6 87
e 6 88
e 6 90
e 6 91
e 6 93
e 6 94
e 6 95
e 6 97
e 6 98
e 6 99
e 7 8
e 7 9
e 7 10
e 7 13
e 7 17
e 7 18
e 7 19
e 7 21
e 7 25
e 7 26
e 7 30
e 7 35
e 7 42
e 7 43
e 7 44
e 7 45
e 7 48
e 7 49
e 7 50
e 7 51
e 7 53
e 7 54
e 7 56
e 7 57
e 7 58
e 7 59
e 7 61
e 7 69
e 7 71
e 7 72
e 7 73
e 7 76
e 7 78
e 7 79
e 7 80
e 7 84
e 7 86
e 7 87
e 7 88
e 7 90
e 7 92
e 7 93
e 7 95
e 7 98
e 7 100
e 8 9
e 8 12
e 8 20
e 8 21
e 8 25
e 8 27
e 8 31
e 8 32
e 8 34
e 8 36
e 8 37
e 8 41
e 8 45
e 8 47
e 8 49
e 8 51
e 8 53
e 8 55
e 8 58
e 8 59
e 8 62
e 8 63
e 8 64
e 8 65
e 8 66
e 8 68
e 8 70
e 8 73
e 8 75
e 8 78
e 8 83
e 8 88
e 8 90
e 8 92
e 8 93
e 8 95
e 8 97
e 8 99
e 8 100
e 9 10
e 9 11
e 9 12
e 9 13
e 9 15
e 9 17
e 9 21
e 9 22
e 9 24
e 9 30
e 9 31
e 9 32
e 9 33
e 9 35
e 9 36
e 9 38
e 9 43
e 9 44
e 9 46
e 9 48
e 9 49
e 9 50
e 9 51
e 9 53
e 9 54
e 9 56
e 9 57
e 9 58
e 9 59
e 9 60
e 9 64
e 9 65
e 9 66
e 9 69
e 9 74
e 9 75
e 9 79
e 9 80
e 9 82
e 9 85
e 9 87
e 9 89
e 9 90
e 9 91
e 9 96
e 9 98
e 10 11
e 10 12
e 10 13
e 10 16
e 10 17
e 10 18
e 10 19
e 10 20
e 10 21
e 10 23
e 10 27
e 10 28
e 10 29
e 10 30
e 10 31
e 10 33
e 10 35
e 10 37
e 10 39
e 10 41
e 10 43
e 10 44
e 10 45
e 10 47
e 10 48
e 10 50
e 10 51
e 10 52
e 10 54
e 10 55
e 10 60
e 10 61
e 10 62
e 10 63
e 10 64
e 10 69
e 10 70
e 10 72
e 10 75
e 10 76
e 10 77
e 10 78
e 10 79
e 10 81
e 10 82
e 10 84
e 10 86
e 10 87
e 10 90
e 10 92
e 10 93
e 10 94
e 10 96
e 10 100
e 11 12
e 11 13
e 11 15
e 11 16
e 11 17
e 11 19
e 11 21
e 11 22
e 11 23
e 11 26
e 11 27
e 11 28
e 11 31
e 11 32
e 11 33
e 11 37
e 11 40
e 11 41
e 11 46
e 11 47
e 11 50
e 11 51
e 11 52
e 11 54
e 11 55
e 11 58
e 11 60
e 11 64
e 11 65
e 11 66
e 11 68
e 11 72
e 11 74
e 11 76
e 11 78
e 11 79
e 11 82
e 11 83
e 11 85
e 11 86
e 11 90
e 11 95
e 11 98
e 11 99
e 12 15
e 12 16
e 12 17
e 12 19
e 12 20
e 12 21
e 12 23
e 12 24
e 12 25
e 12 26
e 12 30
e 12 38
e 12 39
e 12 40
e 12 41
e 12 42
e 12 43
e 12 47
e 12 48
e 12 49
e 12 50
e 12 51
e 12 53
e 12 54
e 12 55
e 12 56
e 12 57
e 12 60
e 12 61
e 12 63
e 12 66
e 12 67
e 12 69
e 12 70
e 12 72
e 12 74
e 12 75
e 12 77
e 12 78
e 12 80
e 12 81
e 12 83
e 12 90
e 12 93
e 12 97
e 12 98
e 12 99
e 13 17
e 13 20
e 13 22
e 13 25
e 13 26
e 13 28
e 13 29
e 13 33
e 13 34
e 13 36
e 13 37
e 13 40
e 13 41
e 13 43
e 13 44
e 13 45
e 13 47
e 13 51
e 13 52
e 13 54
e 13 55
e 13 57
e 13 59
e 13 60
e 13 61
e 13 62
e 13 63
e 13 64
e 13 65
e 13 67
e 13 68
e 13 69
e 13 70
e 13 71
e 13 72
e 13 73
e 13 75
e 13 76
e 13 77
e 13 80
e 13 81
e 13 82
e 13 84
e 13 85
e 13 87
e 13 92
e 13 94
e 13 96
e 13 97
e 13 98
e 13 99
e 13 100
e 14 16
e 14 17
e 14 21
e 14 22
e 14 23
e 14 28
e 14 29
e 14 30
e 14 35
e 14 36
e 14 37
e 14 38
e 14 40
e 14 41
e 14 44
e 14 45
e 14 48
e 14 50
e 14 51
e 14 52
e 14 53
e 14 62
e 14 63
e 14 64
e 14 65
e 14 66
e 14 69
e 14 72
e 14 73
e 14 74
e 14 77
e 14 78
e 14 79
e 14 80
e 14 81
e 14 82
e 14 84
e 14 85
e 14 87
e 14 89
e 14 91
e 14 92
e 14 97
e 14 99
e 15 16
e 15 17
e 15 18
e 15 19
e 15 20
e 15 23
e 15 25
e 15 28
e 15 30
e 15 33
e 15 35
e 15 36
e 15 39
e 15 40
e 15 41
e 15 45
e 15 47
e 15 50
e 15 52
e 15 57
e 15 58
e 15 59
e 15 60
e 15 61
e 15 64
e 15 65
e 15 66
e 15 67
e 15 69
e 15 72
e 15 73
e 15 74
e 15 75
e 15 76
e 15 77
e 15 78
e 15 81
e 15 83
e 15 86
e 15 87
e 15 88
e 15 89
e 15 92
e 15 93
e 15 99
e 16 19
e 16 22
e 16 23
e 16 26
e 16 28
e 16 29
e 16 30
e 16 31
e 16 32
e 16 34
e 16 35
e 16 37
e 16 38
e 16 40
e 16 42
e 16 44
e 16 47
e 16 48
e 16 50
e 16 51
e 16 53
e 16 54
e 16 55
e 16 57
e 16 58
e 16 59
e 16 64
e 16 65
e 16 66
e 16 68
e 16 72
e 16 73
e 16 74
e 16 77
e 16 79
e 16 84
e 16 85
e 16 86
e 16 87
e 16 88
e 16 90
e 16 92
e 16 93
e 16 94
e 16 95
e 16 96
e 16 98
e 16 99
e 17 18
e 17 19
e 17 20
e 17 22
e 17 23
e 17 24
e 17 26
e 17 27
e 17 28
e 17 31
e 17 32
e 17 33
e 17 36
e 17 37
e 17 38
e 17 39
e 17 40
e 17 41
e 17 42
e 17 43
e 17 44
e 17 50
e 17 51
e 17 52
e 17 53
e 17 56
e 17 58
e 17 59
e 17 60
e 17 65
e 17 70
e 17 72
e 17 73
e 17 74
e 17 75
e 17 78
e 17 79
e 17 80
e 17 86
e 17 87
e 17 91
e 17 93
e 17 94
e 17 98
e 18 20
e 18 22
e 18 26
e 18 27
e 18 28
e 18 31
e 18 34
e 18 36
e 18 37
e 18 42
e 18 43
e 18 45
e 18 46
e 18 47
e 18 48
e 18 49
e 18 50
e 18 51
e 18 52
e 18 54
e 18 56
e 18 57
e 18 58
e 18 62
e 18 63
e 18 66
e 18 67
e 18 69
e 18 70
e 18 71
e 18 73
e 18 74
e 18 76
e 18 77
e 18 79
e 18 81
e 18 85
e 18 92
e 18 94
e 18 95
e 18 96
e 18 99
e 18 100
e 19 21
e 19 23
e 19 24
e 19 25
e 19 26
e 19 27
e 19 28
e 19 29
e 19 30
e 19 31
e 19 32
e 19 33
e 19 36
e 19 37
e 19 38
e 19 39
e 19 43
e 19 45
e 19 47
e 19 48
e 19 49
e 19 53
e 19 54
e 19 57
e 19 58
e 19 59
e 19 62
e 19 64
e 19 65
e 19 67
e 19 73
e 19 74
e 19 78
e 19 79
e 19 80
e 19 82
e 19 83
e 19 87
e 19 89
e 19 90
e 19 93
e 19 97
e 19 100
e 20 30
e 20 32
e 20 34
e 20 35
e 20 36
e 20 37
e 20 38
e 20 39
e 20 40
e 20 41
e 20 43
e 20 45
e 20 46
e 20 47
e 20 48
e 20 52
e 20 56
e 20 58
e 20 59
e 20 60
e 20 61
e 20 62
e 20 66
e 20 68
e 20 69
e 20 70
e 20 71
e 20 72
e 20 74
e 20 84
e 20 88
e 20 90
e 20 92
e 20 94
e 20 95
e 20 98
e 20 99
e 21 22
e 21 30
e 21 31
e 21 32
e 21 33
e 21 36
e 21 37
e 21 41
e 21 46
e 21 48
e 21 50
e 21 51
e 21 52
e 21 53
e 21 54
e 21 55
e 21 56
e 21 57
e 21 58
e 21 60
e 21 64
e 21 65
e 21 67
e 21 68
e 21 69
e 21 70
e 21 72
e 21 73
e 21 74
e 21 76
e 21 77
e 21 79
e 21 80
e 21 82
e 21 86
e 21 87
e 21 88
e 21 89
e 21 90
e 21 93
e 21 95
e 21 97
e 21 98
e 22 24
e 22 25
e 22 26
e 22 29
e 22 32
e 22 33
e 22 34
e 22 35
e 22 39
e 22 43
e 22 48
e 22 50
e 22 51
e 22 52
e 22 53
e 22 54
e 22 56
e 22 58
e 22 60
e 22 61
e 22 62
e 22 63
e 22 66
e 22 69
e 22 70
e 22 72
e 22 74
e 22 75
e 22 76
e 22 77
e 22 79
e 22 83
e 22 84
e 22 86
e 22 87
e 22 88
e 22 90
e 22 91
e 22 92
e 22 93
e 22 94
e 22 96
e 22 98
e 22 99
e 22 100
e 23 24
e 23 25
e 23 26
e 23 27
e 23 28
e 23 29
e 23 32
e 23 36
e 23 39
e 23 40
e 23 41
e 23 42
e 23 44
e 23 49
e 23 52
e 23 53
e 23 54
e 23 55
e 23 58
e 23 59
e 23 60
e 23 62
e 23 63
e 23 67
e 23 69
e 23 71
e 23 72
e 23 74
e 23 75
e 23 77
e 23 83
e 23 84
e 23 88
e 23 89
e 23 90
e 23 91
e 23 94
e 23 96
e 23 100
e 24 25
e 24 26
e 24 28
e 24 29
e 24 30
e 24 31
e 24 33
e 24 34
e 24 38
e 24 44
e 24 46
e 24 47
e 24 50
e 24 51
e 24 52
e 24 53
e 24 55
e 24 56
e 24 58
e 24 62
e 24 64
e 24 65
e 24 66
e 24 67
e 24 69
e 24 70
e 24 71
e 24 72
e 24 73
e 24 74
e 24 78
e 24 79
e 24 83
e 24 84
e 24 87
e 24 90
e 24 91
e 24 92
e 24 93
e 24 95
e 24 99
e 24 100
e 25 30
e 25 37
e 25 38
e 25 42
e 25 45
e 25 48
e 25 49
e 25 51
e 25 52
e 25 53
e 25 57
e 25 58
e 25 62
e 25 65
e 25 70
e 25 73
e 25 76
e 25 77
e 25 79
e 25 81
e 25 85
e 25 88
e 25 89
e 25 91
e 25 92
e 25 94
e 25 96
e 25 97
e 25 98
e 25 100
e 26 27
e 26 28
e 26 29
e 26 30
e 26 34
e 26 35
e 26 37
e 26 39
e 26 41
e 26 42
e 26 43
e 26 47
e 26 49
e 26 50
e 26 51
e 26 52
e 26 62
e 26 66
e 26 67
e 26 69
e 26 70
e 26 73
e 26 74
e 26 80
e 26 81
e 26 83
e 26 84
e 26 85
e 26 88
e 26 89
e 26 92
e 26 95
e 26 96
e 27 28
e 27 29
e 27 32
e 27 33
e 27 34
e 27 35
e 27 37
e 27 38
e 27 40
e 27 41
e 27 47
e 27 48
e 27 49
e 27 52
e 27 56
e 27 58
e 27 59
e 27 60
e 27 61
e 27 63
e 27 64
e 27 65
e 27 66
e 27 67
e 27 69
e 27 76
e 27 77
e 27 81
e 27 82
e 27 83
e 27 84
e 27 86
e 27 88
e 27 89
e 27 91
e 27 92
e 27 93
e 27 95
e 27 97
e 27 98
e 27 99
e 27 100
e 28 29
e 28 31
e 28 32
e 28 34
e 28 42
e 28 43
e 28 44
e 28 45
e 28 46
e 28 49
e 28 51
e 28 53
e 28 54
e 28 55
e 28 57
e 28 58
e 28 65
e 28 66
e 28 67
e 28 68
e 28 72
e 28 73
e 28 76
e 28 77
e 28 78
e 28 80
e 28 81
e 28 82
e 28 83
e 28 84
e 28 85
e 28 93
e 28 96
e 28 97
e 28 98
e 28 99
e 28 100
e 29 30
e 29 33
e 29 34
e 29 35
e 29 36
e 29 39
e 29 40
e 29 43
e 29 45
e 29 46
e 29 50
e 29 52
e 29 53
e 29 59
e 29 60
e 29 61
e 29 62
e 29 65
e 29 66
e 29 67
e 29 68
e 29 70
e 29 72
e 29 74
e 29 75
e 29 76
e 29 77
e 29 81
e 29 82
e 29 84
e 29 87
e 29 93
e 29 95
e 29 100
e 30 35
e 30 36
e 30 37
e 30 39
e 30 40
e 30 41
e 30 42
e 30 43
e 30 45
e 30 49
e 30 50
e 30 55
e 30 57
e 30 58
e 30 60
e 30 61
e 30 62
e 30 63
e 30 64
e 30 69
e 30 70
e 30 71
e 30 73
e 30 78
e 30 79
e 30 82
e 30 83
e 30 84
e 30 88
e 30 89
e 30 90
e 30 91
e 30 94
e 30 96
e 30 97
e 30 100
e 31 33
e 31 36
e 31 38
e 31 40
e 31 41
e 31 43
e 31 44
e 31 46
e 31 48
e 31 49
e 31 51
e 31 54
e 31 55
e 31 56
e 31 60
e 31 62
e 31 63
e 31 64
e 31 65
e 31 66
e 31 67
e 31 70
e 31 71
e 31 72
e 31 74
e 31 75
e 31 76
e 31 78
e 31 79
e 31 82
e 31 83
e 31 86
e 31 87
e 31 93
e 31 94
e 31 97
e 31 98
e 31 100
e 32 33
e 32 34
e 32 35
e 32 36
e 32 37
e 32 38
e 32 39
e 32 41
e 32 44
e 32 47
e 32 48
e 32 49
e 32 51
e 32 52
e 32 57
e 32 58
e 32 61
e 32 63
e 32 64
e 32 65
e 32 67
e 32 68
e 32 70
e 32 71
e 32 72
e 32 73
e 32 77
e 32 79
e 32 80
e 32 81
e 32 83
e 32 84
e 32 85
e 32 86
e 32 89
e 32 92
e 32 93
e 32 94
e 32 95
e 32 96
e 32 97
e 32 98
e 32 99
e 32 100
e 33 39
e 33 40
e 33 41
e 33 44
e 33 45
e 33 46
e 33 47
e 33 48
e 33 50
e 33 51
e 33 53
e 33 55
e 33 56
e 33 57
e 33 59
e 33 60
e 33 61
e 33 62
e 33 65
e 33 66
e 33 67
e 33 69
e 33 72
e 33 73
e 33 77
e 33 81
e 33 82
e 33 83
e 33 87
e 33 88
e 33 90
e 33 93
e 33 94
e 33 95
e 33 97
e 34 37
e 34 38
e 34 42
e 34 43
e 34 45
e 34 47
e 34 49
e 34 52
e 34 53
e 34 54
e 34 55
e 34 58
e 34 60
e 34 61
e 34 63
e 34 64
e 34 65
e 34 66
e 34 67
e 34 69
e 34 73
e 34 75
e 34 76
e 34 78
e 34 80
e 34 85
e 34 87
e 34 88
e 34 89
e 34 90
e 34 92
e 34 94
e 34 95
e 34 96
e 34 98
e 34 99
e 35 36
e 35 37
e 35 38
e 35 40
e 35 41
e 35 42
e 35 43
e 35 44
e 35 48
e 35 49
e 35 51
e 35 52
e 35 54
e 35 56
e 35 57
e 35 60
e 35 64
e 35 65
e 35 70
e 35 75
e 35 77
e 35 78
e 35 80
e 35 81
e 35 82
e 35 83
e 35 84
e 35 85
e 35 86
e 35 88
e 35 89
e 35 90
e 35 93
e 35 95
e 35 97
e 35 98
e 35 99
e 35 100
e 36 40
e 36 42
e 36 44
e 36 46
e 36 48
e 36 49
e 36 52
e 36 56
e 36 59
e 36 60
e 36 64
e 36 67
e 36 68
e 36 69
e 36 71
e 36 74
e 36 77
e 36 82
e 36 84
e 36 85
e 36 86
e 36 90
e 36 91
e 36 92
e 36 93
e 36 95
e 36 99
e 37 38
e 37 41
e 37 46
e 37 52
e 37 57
e 37 58
e 37 62
e 37 63
e 37 65
e 37 66
e 37 67
e 37 68
e 37 69
e 37 71
e 37 73
e 37 77
e 37 78
e 37 81
e 37 83
e 37 84
e 37 86
e 37 87
e 37 91
e 37 94
e 37 95
e 37 96
e 37 97
e 37 98
e 37 99
e 37 100
e 38 39
e 38 40
e 38 42
e 38 43
e 38 48
e 38 49
e 38 50
e 38 51
e 38 52
e 38 55
e 38 56
e 38 58
e 38 60
e 38 61
e 38 62
e 38 71
e 38 74
e 38 75
e 38 81
e 38 83
e 38 86
e 38 87
e 38 88
e 38 89
e 38 91
e 38 97
e 38 98
e 38 99
e 39 40
e 39 44
e 39 45
e 39 46
e 39 48
e 39 49
e 39 51
e 39 52
e 39 53
e 39 54
e 39 55
e 39 58
e 39 59
e 39 60
e 39 61
e 39 65
e 39 66
e 39 71
e 39 72
e 39 74
e 39 75
e 39 77
e 39 78
e 39 80
e 39 90
e 39 92
e 39 93
e 39 94
e 39 97
e 39 98
e 40 41
e 40 44
e 40 46
e 40 48
e 40 49
e 40 52
e 40 53
e 40 54
e 40 56
e 40 57
e 40 61
e 40 62
e 40 64
e 40 65
e 40 66
e 40 67
e 40 69
e 40 70
e 40 71
e 40 74
e 40 79
e 40 80
e 40 81
e 40 86
e 40 87
e 40 89
e 40 91
e 40 93
e 40 94
e 40 95
e 40 99
e 41 42
e 41 45
e 41 46
e 41 53
e 41 54
e 41 55
e 41 56
e 41 57
e 41 59
e 41 60
e 41 61
e 41 64
e 41 65
e 41 67
e 41 68
e 41 69
e 41 70
e 41 72
e 41 73
e 41 74
e 41 75
e 41 77
e 41 80
e 41 82
e 41 83
e 41 84
e 41 85
e 41 86
e 41 91
e 41 94
e 41 95
e 41 96
e 41 97
e 41 98
e 41 100
e 42 43
e 42 44
e 42 48
e 42 49
e 42 50
e 42 51
e 42 55
e 42 61
e 42 62
e 42 63
e 42 65
e 42 67
e 42 69
e 42 70
e 42 71
e 42 72
e 42 73
e 42 76
e 42 77
e 42 78
e 42 79
e 42 80
e 42 81
e 42 83
e 42 86
e 42 88
e 42 90
e 42 91
e 42 94
e 42 95
e 42 98
e 43 44
e 43 45
e 43 48
e 43 50
e 43 51
e 43 53
e 43 54
e 43 55
e 43 59
e 43 60
e 43 61
e 43 66
e 43 70
e 43 71
e 43 72
e 43 73
e 43 76
e 43 77
e 43 79
e 43 80
e 43 82
e 43 84
e 43 87
e 43 88
e 43 89
e 43 90
e 43 92
e 43 94
e 43 95
e 43 96
e 43 99
e 44 48
e 44 49
e 44 50
e 44 55
e 44 56
e 44 57
e 44 58
e 44 61
e 44 63
e 44 65
e 44 67
e 44 68
e 44 70
e 44 71
e 44 73
e 44 78
e 44 80
e 44 82
e 44 85
e 44 86
e 44 89
e 44 90
e 44 91
e 44 93
e 44 95
e 44 99
e 44 100
e 45 47
e 45 49
e 45 50
e 45 55
e 45 59
e 45 60
e 45 62
e 45 63
e 45 65
e 45 66
e 45 71
e 45 74
e 45 76
e 45 80
e 45 82
e 45 83
e 45 89
e 45 91
e 45 92
e 45 93
e 45 94
e 45 95
e 45 96
e 45 99
e 46 50
e 46 51
e 46 54
e 46 55
e 46 57
e 46 59
e 46 60
e 46 63
e 46 65
e 46 66
e 46 67
e 46 71
e 46 72
e 46 73
e 46 74
e 46 75
e 46 77
e 46 78
e 46 79
e 46 80
e 46 83
e 46 84
e 46 86
e 46 89
e 46 91
e 46 93
e 46 94
e 46 95
e 46 96
e 46 100
e 47 49
e 47 50
e 47 52
e 47 53
e 47 54
e 47 56
e 47 57
e 47 58
e 47 60
e 47 61
e 47 63
e 47 64
e 47 67
e 47 69
e 47 70
e 47 74
e 47 79
e 47 81
e 47 83
e 47 84
e 47 86
e 47 87
e 47 89
e 47 91
e 47 92
e 47 94
e 47 97
e 47 100
e 48 50
e 48 51
e 48 52
e 48 53
e 48 54
e 48 55
e 48 56
e 48 58
e 48 64
e 48 66
e 48 78
e 48 79
e 48 81
e 48 82
e 48 83
e 48 85
e 48 86
e 48 87
e 48 89
e 48 90
e 48 91
e 48 93
e 48 94
e 48 96
e 48 99
e 48 100
e 49 50
e 49 52
e 49 53
e 49 54
e 49 55
e 49 60
e 49 61
e 49 66
e 49 67
e 49 70
e 49 71
e 49 75
e 49 76
e 49 77
e 49 82
e 49 83
e 49 84
e 49 87
e 49 88
e 49 89
e 49 90
e 49 91
e 49 93
e 49 94
e 49 97
e 49 100
e 50 54
e 50 57
e 50 59
e 50 60
e 50 61
e 50 63
e 50 66
e 50 67
e 50 71
e 50 73
e 50 74
e 50 75
e 50 78
e 50 80
e 50 89
e 50 90
e 50 91
e 50 93
e 50 99
e 51 53
e 51 55
e 51 56
e 51 57
e 51 61
e 51 64
e 51 66
e 51 67
e 51 68
e 51 74
e 51 75
e 51 77
e 51 78
e 51 80
e 51 81
e 51 83
e 51 84
e 51 88
e 51 90
e 51 91
e 51 92
e 51 93
e 51 94
e 51 97
e 51 100
e 52 53
e 52 55
e 52 56
e 52 57
e 52 60
e 52 61
e 52 62
e 52 63
e 52 65
e 52 67
e 52 71
e 52 72
e 52 73
e 52 74
e 52 77
e 52 79
e 52 84
e 52 86
e 52 88
e 52 90
e 52 91
e 52 97
e 52 98
e 53 55
e 53 63
e 53 66
e 53 67
e 53 70
e 53 71
e 53 74
e 53 75
e 53 77
e 53 78
e 53 80
e 53 83
e 53 85
e 53 88
e 53 89
e 53 93
e 53 94
e 53 97
e 53 100
e 54 56
e 54 57
e 54 60
e 54 62
e 54 64
e 54 66
e 54 68
e 54 71
e 54 73
e 54 78
e 54 81
e 54 82
e 54 87
e 54 91
e 54 92
e 54 94
e 54 95
e 54 96
e 54 98
e 55 56
e 55 57
e 55 58
e 55 60
e 55 62
e 55 63
e 55 64
e 55 67
e 55 68
e 55 72
e 55 73
e 55 74
e 55 75
e 55 78
e 55 79
e 55 80
e 55 81
e 55 82
e 55 83
e 55 84
e 55 85
e 55 86
e 55 87
e 55 88
e 55 91
e 55 94
e 55 98
e 56 58
e 56 60
e 56 61
e 56 63
e 56 64
e 56 66
e 56 67
e 56 68
e 56 69
e 56 70
e 56 72
e 56 75
e 56 76
e 56 78
e 56 80
e 56 81
e 56 83
e 56 84
e 56 86
e 56 88
e 56 89
e 56 90
e 56 91
e 56 93
e 56 94
e 56 97
e 56 100
e 57 58
e 57 61
e 57 63
e 57 64
e 57 67
e 57 70
e 57 71
e 57 72
e 57 74
e 57 75
e 57 78
e 57 82
e 57 86
e 57 88
e 58 59
e 58 61
e 58 63
e 58 66
e 58 67
e 58 68
e 58 71
e 58 72
e 58 74
e 58 78
e 58 82
e 58 83
e 58 84
e 58 86
e 58 87
e 58 88
e 58 90
e 58 91
e 58 92
e 58 94
e 58 97
e 58 99
e 58 100
e 59 60
e 59 65
e 59 66
e 59 67
e 59 71
e 59 72
e 59 73
e 59 76
e 59 78
e 59 83
e 59 88
e 59 91
e 59 92
e 59 95
e 59 96
e 59 97
e 59 98
e 60 61
e 60 63
e 60 68
e 60 69
e 60 72
e 60 73
e 60 74
e 60 76
e 60 77
e 60 78
e 60 82
e 60 84
e 60 86
e 60 88
e 60 89
e 60 91
e 60 92
e 60 93
e 60 94
e 60 98
e 61 62
e 61 63
e 61 64
e 61 68
e 61 69
e 61 72
e 61 73
e 61 75
e 61 77
e 61 78
e 61 79
e 61 80
e 61 82
e 61 83
e 61 84
e 61 85
e 61 86
e 61 90
e 61 93
e 61 94
e 61 99
e 62 65
e 62 66
e 62 67
e 62 68
e 62 69
e 62 74
e 62 75
e 62 77
e 62 78
e 62 79
e 62 88
e 62 89
e 62 91
e 62 96
e 62 97
e 63 65
e 63 66
e 63 68
e 63 69
e 63 74
e 63 75
e 63 76
e 63 77
e 63 79
e 63 80
e 63 82
e 63 84
e 63 85
e 63 87
e 63 89
e 63 92
e 63 93
e 63 95
e 63 97
e 63 98
e 63 99
e 64 70
e 64 72
e 64 74
e 64 75
e 64 79
e 64 80
e 64 81
e 64 88
e 64 91
e 64 92
e 64 93
e 64 99
e 64 100
e 65 67
e 65 68
e 65 69
e 65 70
e 65 74
e 65 75
e 65 76
e 65 77
e 65 78
e 65 81
e 65 84
e 65 86
e 65 93
e 65 95
e 65 96
e 65 97
e 65 98
e 66 73
e 66 76
e 66 77
e 66 79
e 66 81
e 66 84
e 66 86
e 66 88
e 66 89
e 66 93
e 66 94
e 66 96
e 66 99
e 67 69
e 67 71
e 67 72
e 67 73
e 67 74
e 67 75
e 67 81
e 67 84
e 67 87
e 67 88
e 67 89
e 67 91
e 67 92
e 67 93
e 67 94
e 67 95
e 67 96
e 67 98
e 67 99
e 67 100
e 68 71
e 68 76
e 68 80
e 68 81
e 68 82
e 68 83
e 68 85
e 68 86
e 68 87
e 68 91
e 68 92
e 68 93
e 68 96
e 69 72
e 69 74
e 69 78
e 69 80
e 69 88
e 69 89
e 69 90
e 69 91
e 69 93
e 69 96
e 69 100
e 70 72
e 70 73
e 70 75
e 70 78
e 70 80
e 70 81
e 70 84
e 70 85
e 70 86
e 70 87
e 70 89
e 70 90
e 70 91
e 70 92
e 70 96
e 71 74
e 71 79
e 71 81
e 71 82
e 71 83
e 71 84
e 71 87
e 71 93
e 71 98
e 72 73
e 72 75
e 72 77
e 72 89
e 72 92
e 72 95
e 73 74
e 73 75
e 73 77
e 73 78
e 73 79
e 73 80
e 73 82
e 73 83
e 73 85
e 73 87
e 73 88
e 73 89
e 73 90
e 73 93
e 73 94
e 73 97
e 73 98
e 74 76
e 74 77
e 74 78
e 74 79
e 74 80
e 74 82
e 74 86
e 74 87
e 74 89
e 74 90
e 74 91
e 74 94
e 74 95
e 74 97
e 74 98
e 74 99
e 75 77
e 75 78
e 75 79
e 75 89
e 75 92
e 75 96
e 75 98
e 75 100
e 76 77
e 76 78
e 76 79
e 76 81
e 76 87
e 76 88
e 76 89
e 76 90
e 76 91
e 76 92
e 76 93
e 76 94
e 76 95
e 76 97
e 77 82
e 77 83
e 77 84
e 77 88
e 77 89
e 77 91
e 77 93
e 77 95
e 77 96
e 77 100
e 78 82
e 78 90
e 78 91
e 78 93
e 78 94
e 78 97
e 78 99
e 79 81
e 79 82
e 79 83
e 79 85
e 79 86
e 79 87
e 79 89
e 79 91
e 79 93
e 79 97
e 80 81
e 80 82
e 80 83
e 80 84
e 80 85
e 80 86
e 80 87
e 80 88
e 80 89
e 80 92
e 80 94
e 81 82
e 81 84
e 81 86
e 81 90
e 81 91
e 81 93
e 81 94
e 81 96
e 81 97
e 81 99
e 82 83
e 82 84
e 82 85
e 82 87
e 82 88
e 82 89
e 82 91
e 82 94
e 82 95
e 82 96
e 82 97
e 82 99
e 82 100
e 83 84
e 83 85
e 83 89
e 83 90
e 83 91
e 83 93
e 83 94
e 84 85
e 84 87
e 84 88
e 84 89
e 84 91
e 84 93
e 84 94
e 84 95
e 84 98
e 84 99
e 85 89
e 85 90
e 85 92
e 85 93
e 85 95
e 85 96
e 86 87
e 86 92
e 86 93
e 86 96
e 86 97
e 86 98
e 86 99
e 86 100
e 87 88
e 87 89
e 87 90
e 87 91
e 87 92
e 87 94
e 87 95
e 87 97
e 87 98
e 88 89
e 88 92
e 88 93
e 88 97
e 88 100
e 89 90
e 89 92
e 89 93
e 89 97
e 89 98
e 89 100
e 90 92
e 90 93
e 90 95
e 90 96
e 90 99
e 91 92
e 91 94
e 91 97
e 92 94
e 92 95
e 92 98
e 93 94
e 93 97
e 93 98
e 94 96
e 94 98
e 94 100
e 95 96
e 95 98
e 95 99
e 96 98
e 96 100
e 97 100
e 98 99
e 99 100
