c Converted from gc_250_3
c Source format: '<vertices> <edges>' header followed by integer edge pairs
p edge 250 9307
e 1 6
e 1 8
e 1 11
e 1 15
e 1 16
e 1 17
e 1 23
e 1 25
e 1 26
e 1 29
e 1 34
e 1 37
e 1 38
e 1 39
e 1 41
e 1 49
e 1 50
e 1 54
e 1 63
e 1 76
e 1 77
e 1 81
e 1 82
e 1 85
e 1 87
e 1 90
e 1 92
e 1 97
e 1 98
e 1 102
e 1 106
e 1 108
e 1 113
e 1 117
e 1 120
e 1 123
e 1 130
e 1 133
e 1 134
e 1 137
e 1 143
e 1 145
e 1 147
e 1 149
e 1 150
e 1 151
e 1 159
e 1 160
e 1 161
e 1 163
e 1 164
e 1 169
e 1 170
e 1 172
e 1 173
e 1 176
e 1 178
e 1 180
e 1 182
e 1 185
e 1 187
e 1 208
e 1 213
e 1 217
e 1 221
e 1 222
e 1 226
e 1 231
e 1 232
e 1 235
e 1 236
e 1 238
e 1 240
e 1 249
e 2 5
e 2 6
e 2 8
e 2 15
e 2 20
e 2 22
e 2 24
e 2 28
e 2 29
e 2 33
e 2 34
e 2 36
e 2 39
e 2 40
e 2 44
e 2 56
e 2 66
e 2 73
e 2 78
e 2 80
e 2 83
e 2 85
e 2 86
e 2 89
e 2 90
e 2 91
e 2 92
e 2 94
e 2 100
e 2 101
e 2 104
e 2 106
e 2 108
e 2 110
e 2 122
e 2 126
e 2 129
e 2 131
e 2 135
e 2 137
e 2 139
e 2 143
e 2 146
e 2 147
e 2 155
e 2 158
e 2 164
e 2 165
e 2 175
e 2 176
e 2 178
e 2 185
e 2 187
e 2 189
e 2 192
e 2 198
e 2 199
e 2 200
e 2 201
e 2 203
e 2 207
e 2 209
e 2 212
e 2 215
e 2 219
e 2 220
e 2 221
e 2 225
e 2 227
e 2 229
e 2 231
e 2 236
e 2 237
e 2 244
e 2 248
e 3 4
e 3 11
e 3 12
e 3 21
e 3 22
e 3 23
e 3 24
e 3 26
e 3 29
e 3 31
e 3 41
e 3 43
e 3 44
e 3 49
e 3 50
e 3 51
e 3 52
e 3 54
e 3 61
e 3 65
e 3 67
e 3 72
e 3 73
e 3 76
e 3 86
e 3 106
e 3 112
e 3 114
e 3 115
e 3 121
e 3 127
e 3 130
e 3 133
e 3 136
e 3 138
e 3 142
e 3 151
e 3 152
e 3 154
e 3 159
e 3 160
e 3 163
e 3 167
e 3 172
e 3 175
e 3 176
e 3 183
e 3 186
e 3 187
e 3 191
e 3 194
e 3 199
e 3 200
e 3 202
e 3 206
e 3 208
e 3 209
e 3 211
e 3 214
e 3 221
e 3 223
e 3 227
e 3 228
e 3 235
e 3 238
e 3 241
e 3 244
e 3 245
e 3 249
e 4 6
e 4 9
e 4 13
e 4 15
e 4 19
e 4 21
e 4 23
e 4 25
e 4 27
e 4 30
e 4 32
e 4 35
e 4 37
e 4 42
e 4 46
e 4 48
e 4 50
e 4 55
e 4 62
e 4 64
e 4 66
e 4 67
e 4 70
e 4 75
e 4 76
e 4 83
e 4 84
e 4 86
e 4 87
e 4 89
e 4 91
e 4 92
e 4 94
e 4 95
e 4 99
e 4 100
e 4 101
e 4 104
e 4 105
e 4 110
e 4 116
e 4 117
e 4 121
e 4 122
e 4 124
e 4 125
e 4 126
e 4 129
e 4 130
e 4 131
e 4 134
e 4 135
e 4 138
e 4 139
e 4 140
e 4 141
e 4 142
e 4 145
e 4 147
e 4 150
e 4 157
e 4 158
e 4 161
e 4 162
e 4 163
e 4 164
e 4 172
e 4 183
e 4 185
e 4 188
e 4 189
e 4 190
e 4 192
e 4 194
e 4 196
e 4 198
e 4 199
e 4 200
e 4 205
e 4 206
e 4 207
e 4 213
e 4 224
e 4 227
e 4 228
e 4 232
e 4 233
e 4 234
e 4 235
e 4 236
e 4 238
e 4 243
e 4 247
e 4 249
e 5 6
e 5 17
e 5 18
e 5 20
e 5 25
e 5 27
e 5 29
e 5 32
e 5 38
e 5 44
e 5 46
e 5 49
e 5 51
e 5 54
e 5 55
e 5 59
e 5 61
e 5 67
e 5 69
e 5 73
e 5 74
e 5 83
e 5 86
e 5 88
e 5 89
e 5 92
e 5 94
e 5 100
e 5 103
e 5 110
e 5 116
e 5 117
e 5 123
e 5 127
e 5 130
e 5 132
e 5 133
e 5 138
e 5 146
e 5 149
e 5 155
e 5 156
e 5 159
e 5 160
e 5 162
e 5 163
e 5 165
e 5 166
e 5 169
e 5 172
e 5 175
e 5 178
e 5 179
e 5 180
e 5 181
e 5 189
e 5 191
e 5 198
e 5 199
e 5 202
e 5 205
e 5 211
e 5 212
e 5 218
e 5 219
e 5 220
e 5 223
e 5 231
e 5 233
e 5 237
e 5 239
e 5 241
e 5 246
e 5 249
e 6 10
e 6 12
e 6 18
e 6 20
e 6 21
e 6 23
e 6 24
e 6 25
e 6 31
e 6 32
e 6 33
e 6 37
e 6 39
e 6 41
e 6 43
e 6 45
e 6 48
e 6 51
e 6 53
e 6 54
e 6 59
e 6 60
e 6 62
e 6 66
e 6 70
e 6 73
e 6 74
e 6 77
e 6 78
e 6 79
e 6 84
e 6 86
e 6 96
e 6 98
e 6 103
e 6 105
e 6 106
e 6 110
e 6 112
e 6 116
e 6 121
e 6 123
e 6 133
e 6 135
e 6 138
e 6 140
e 6 141
e 6 146
e 6 152
e 6 155
e 6 157
e 6 159
e 6 163
e 6 165
e 6 167
e 6 173
e 6 180
e 6 181
e 6 185
e 6 187
e 6 188
e 6 193
e 6 202
e 6 204
e 6 208
e 6 212
e 6 213
e 6 214
e 6 219
e 6 222
e 6 225
e 6 231
e 6 234
e 6 238
e 6 240
e 6 242
e 7 8
e 7 9
e 7 14
e 7 16
e 7 19
e 7 28
e 7 32
e 7 33
e 7 38
e 7 39
e 7 42
e 7 44
e 7 45
e 7 47
e 7 48
e 7 53
e 7 64
e 7 67
e 7 68
e 7 70
e 7 71
e 7 72
e 7 80
e 7 85
e 7 94
e 7 99
e 7 102
e 7 105
e 7 111
e 7 113
e 7 115
e 7 116
e 7 118
e 7 121
e 7 123
e 7 127
e 7 130
e 7 132
e 7 140
e 7 141
e 7 143
e 7 145
e 7 146
e 7 153
e 7 158
e 7 160
e 7 167
e 7 168
e 7 170
e 7 171
e 7 172
e 7 179
e 7 181
e 7 183
e 7 189
e 7 192
e 7 195
e 7 196
e 7 197
e 7 204
e 7 206
e 7 208
e 7 210
e 7 220
e 7 222
e 7 225
e 7 227
e 7 231
e 7 234
e 7 235
e 7 242
e 7 247
e 8 14
e 8 17
e 8 19
e 8 28
e 8 29
e 8 37
e 8 38
e 8 39
e 8 45
e 8 49
e 8 50
e 8 52
e 8 53
e 8 54
e 8 56
e 8 58
e 8 62
e 8 65
e 8 67
e 8 70
e 8 72
e 8 75
e 8 76
e 8 82
e 8 90
e 8 91
e 8 94
e 8 98
e 8 102
e 8 105
e 8 106
e 8 110
e 8 112
e 8 113
e 8 121
e 8 122
e 8 124
e 8 127
e 8 128
e 8 130
e 8 132
e 8 133
e 8 139
e 8 144
e 8 146
e 8 149
e 8 153
e 8 154
e 8 156
e 8 157
e 8 161
e 8 164
e 8 171
e 8 175
e 8 189
e 8 194
e 8 195
e 8 197
e 8 198
e 8 199
e 8 200
e 8 202
e 8 206
e 8 207
e 8 211
e 8 215
e 8 216
e 8 220
e 8 231
e 8 232
e 8 233
e 8 234
e 8 235
e 8 243
e 8 244
e 8 245
e 8 246
e 8 250
e 9 10
e 9 12
e 9 13
e 9 20
e 9 23
e 9 24
e 9 25
e 9 26
e 9 30
e 9 37
e 9 40
e 9 44
e 9 45
e 9 58
e 9 59
e 9 61
e 9 70
e 9 73
e 9 75
e 9 78
e 9 86
e 9 88
e 9 94
e 9 95
e 9 97
e 9 105
e 9 106
e 9 109
e 9 121
e 9 126
e 9 129
e 9 132
e 9 139
e 9 145
e 9 148
e 9 149
e 9 150
e 9 151
e 9 153
e 9 154
e 9 156
e 9 159
e 9 163
e 9 169
e 9 173
e 9 175
e 9 188
e 9 189
e 9 191
e 9 200
e 9 207
e 9 209
e 9 212
e 9 217
e 9 223
e 9 225
e 9 230
e 9 237
e 9 245
e 9 246
e 9 248
e 9 250
e 10 14
e 10 15
e 10 21
e 10 22
e 10 32
e 10 33
e 10 34
e 10 36
e 10 37
e 10 38
e 10 41
e 10 47
e 10 48
e 10 53
e 10 54
e 10 55
e 10 56
e 10 57
e 10 60
e 10 63
e 10 64
e 10 69
e 10 73
e 10 75
e 10 78
e 10 85
e 10 86
e 10 87
e 10 88
e 10 93
e 10 95
e 10 100
e 10 102
e 10 103
e 10 105
e 10 106
e 10 115
e 10 120
e 10 125
e 10 128
e 10 129
e 10 130
e 10 132
e 10 138
e 10 139
e 10 140
e 10 141
e 10 143
e 10 148
e 10 153
e 10 154
e 10 155
e 10 157
e 10 158
e 10 159
e 10 161
e 10 167
e 10 169
e 10 173
e 10 177
e 10 185
e 10 190
e 10 198
e 10 202
e 10 203
e 10 212
e 10 223
e 10 226
e 10 227
e 10 232
e 10 236
e 10 241
e 11 14
e 11 18
e 11 21
e 11 22
e 11 23
e 11 31
e 11 33
e 11 37
e 11 38
e 11 41
e 11 43
e 11 45
e 11 48
e 11 53
e 11 55
e 11 58
e 11 60
e 11 63
e 11 69
e 11 70
e 11 73
e 11 75
e 11 84
e 11 88
e 11 96
e 11 100
e 11 104
e 11 111
e 11 112
e 11 114
e 11 117
e 11 118
e 11 123
e 11 126
e 11 135
e 11 136
e 11 137
e 11 138
e 11 141
e 11 144
e 11 145
e 11 148
e 11 150
e 11 159
e 11 161
e 11 163
e 11 165
e 11 170
e 11 175
e 11 177
e 11 180
e 11 182
e 11 187
e 11 189
e 11 191
e 11 192
e 11 194
e 11 195
e 11 203
e 11 208
e 11 211
e 11 215
e 11 218
e 11 221
e 11 229
e 11 238
e 11 240
e 11 244
e 12 22
e 12 28
e 12 35
e 12 36
e 12 37
e 12 38
e 12 43
e 12 46
e 12 47
e 12 50
e 12 52
e 12 57
e 12 58
e 12 61
e 12 63
e 12 64
e 12 75
e 12 80
e 12 86
e 12 87
e 12 92
e 12 93
e 12 98
e 12 99
e 12 100
e 12 101
e 12 107
e 12 115
e 12 118
e 12 119
e 12 120
e 12 123
e 12 127
e 12 135
e 12 137
e 12 139
e 12 140
e 12 144
e 12 150
e 12 151
e 12 159
e 12 161
e 12 164
e 12 167
e 12 174
e 12 175
e 12 177
e 12 180
e 12 181
e 12 184
e 12 195
e 12 197
e 12 199
e 12 202
e 12 203
e 12 205
e 12 206
e 12 211
e 12 214
e 12 217
e 12 218
e 12 221
e 12 224
e 12 229
e 12 235
e 12 237
e 12 238
e 12 242
e 12 244
e 12 248
e 13 18
e 13 21
e 13 31
e 13 34
e 13 35
e 13 39
e 13 41
e 13 43
e 13 48
e 13 53
e 13 54
e 13 59
e 13 61
e 13 62
e 13 63
e 13 68
e 13 70
e 13 71
e 13 72
e 13 78
e 13 79
e 13 80
e 13 83
e 13 86
e 13 87
e 13 89
e 13 91
e 13 95
e 13 97
e 13 99
e 13 100
e 13 101
e 13 102
e 13 104
e 13 106
e 13 110
e 13 111
e 13 119
e 13 127
e 13 133
e 13 146
e 13 147
e 13 150
e 13 158
e 13 160
e 13 164
e 13 166
e 13 167
e 13 179
e 13 182
e 13 183
e 13 187
e 13 192
e 13 196
e 13 199
e 13 200
e 13 202
e 13 205
e 13 206
e 13 210
e 13 211
e 13 215
e 13 220
e 13 222
e 13 226
e 13 229
e 13 232
e 13 234
e 13 239
e 13 246
e 13 250
e 14 15
e 14 17
e 14 33
e 14 34
e 14 35
e 14 40
e 14 43
e 14 50
e 14 54
e 14 60
e 14 64
e 14 65
e 14 67
e 14 69
e 14 71
e 14 72
e 14 75
e 14 81
e 14 83
e 14 84
e 14 85
e 14 89
e 14 90
e 14 92
e 14 95
e 14 98
e 14 99
e 14 100
e 14 105
e 14 108
e 14 114
e 14 117
e 14 118
e 14 119
e 14 128
e 14 137
e 14 139
e 14 140
e 14 144
e 14 147
e 14 148
e 14 149
e 14 154
e 14 158
e 14 159
e 14 160
e 14 166
e 14 172
e 14 173
e 14 174
e 14 184
e 14 189
e 14 196
e 14 197
e 14 200
e 14 205
e 14 207
e 14 208
e 14 222
e 14 227
e 14 229
e 14 230
e 14 234
e 14 235
e 14 241
e 14 242
e 14 249
e 15 24
e 15 28
e 15 30
e 15 35
e 15 39
e 15 41
e 15 42
e 15 47
e 15 48
e 15 50
e 15 52
e 15 57
e 15 71
e 15 72
e 15 80
e 15 81
e 15 84
e 15 86
e 15 92
e 15 95
e 15 96
e 15 97
e 15 103
e 15 104
e 15 107
e 15 111
e 15 114
e 15 115
e 15 121
e 15 123
e 15 130
e 15 134
e 15 135
e 15 149
e 15 150
e 15 151
e 15 152
e 15 155
e 15 160
e 15 163
e 15 166
e 15 170
e 15 171
e 15 172
e 15 174
e 15 175
e 15 177
e 15 180
e 15 183
e 15 188
e 15 190
e 15 191
e 15 203
e 15 206
e 15 209
e 15 210
e 15 217
e 15 222
e 15 224
e 15 226
e 15 227
e 15 237
e 15 239
e 15 247
e 16 19
e 16 22
e 16 25
e 16 28
e 16 34
e 16 35
e 16 38
e 16 40
e 16 43
e 16 45
e 16 50
e 16 52
e 16 54
e 16 55
e 16 57
e 16 60
e 16 62
e 16 63
e 16 65
e 16 71
e 16 73
e 16 93
e 16 97
e 16 98
e 16 102
e 16 103
e 16 104
e 16 110
e 16 113
e 16 115
e 16 121
e 16 125
e 16 128
e 16 136
e 16 137
e 16 139
e 16 142
e 16 143
e 16 144
e 16 151
e 16 158
e 16 166
e 16 170
e 16 177
e 16 178
e 16 179
e 16 182
e 16 183
e 16 189
e 16 191
e 16 194
e 16 198
e 16 206
e 16 209
e 16 210
e 16 211
e 16 212
e 16 215
e 16 218
e 16 221
e 16 226
e 16 227
e 16 229
e 16 235
e 16 243
e 16 244
e 16 246
e 17 24
e 17 25
e 17 26
e 17 31
e 17 38
e 17 41
e 17 45
e 17 46
e 17 49
e 17 50
e 17 57
e 17 61
e 17 62
e 17 64
e 17 68
e 17 70
e 17 73
e 17 78
e 17 79
e 17 80
e 17 81
e 17 82
e 17 83
e 17 84
e 17 87
e 17 92
e 17 104
e 17 107
e 17 109
e 17 111
e 17 112
e 17 118
e 17 121
e 17 123
e 17 125
e 17 127
e 17 128
e 17 129
e 17 131
e 17 132
e 17 139
e 17 145
e 17 146
e 17 149
e 17 151
e 17 155
e 17 157
e 17 158
e 17 165
e 17 175
e 17 180
e 17 182
e 17 186
e 17 188
e 17 192
e 17 197
e 17 200
e 17 206
e 17 207
e 17 209
e 17 210
e 17 214
e 17 216
e 17 218
e 17 219
e 17 222
e 17 224
e 17 226
e 17 228
e 17 229
e 17 234
e 17 235
e 17 238
e 17 245
e 17 248
e 17 249
e 18 20
e 18 22
e 18 24
e 18 27
e 18 34
e 18 37
e 18 38
e 18 39
e 18 42
e 18 46
e 18 49
e 18 51
e 18 53
e 18 56
e 18 61
e 18 65
e 18 68
e 18 69
e 18 70
e 18 73
e 18 74
e 18 75
e 18 80
e 18 82
e 18 92
e 18 93
e 18 94
e 18 100
e 18 108
e 18 109
e 18 115
e 18 121
e 18 124
e 18 126
e 18 127
e 18 130
e 18 132
e 18 134
e 18 144
e 18 147
e 18 149
e 18 154
e 18 155
e 18 157
e 18 158
e 18 164
e 18 169
e 18 171
e 18 172
e 18 174
e 18 180
e 18 181
e 18 184
e 18 188
e 18 189
e 18 190
e 18 194
e 18 196
e 18 198
e 18 205
e 18 206
e 18 210
e 18 211
e 18 212
e 18 213
e 18 214
e 18 216
e 18 218
e 18 219
e 18 221
e 18 225
e 18 227
e 18 228
e 18 229
e 18 230
e 18 232
e 18 233
e 18 235
e 18 236
e 18 239
e 18 241
e 18 248
e 19 25
e 19 27
e 19 29
e 19 33
e 19 41
e 19 42
e 19 46
e 19 49
e 19 50
e 19 53
e 19 54
e 19 56
e 19 60
e 19 64
e 19 73
e 19 74
e 19 76
e 19 78
e 19 79
e 19 86
e 19 91
e 19 93
e 19 98
e 19 103
e 19 108
e 19 109
e 19 120
e 19 124
e 19 125
e 19 126
e 19 128
e 19 133
e 19 140
e 19 144
e 19 146
e 19 152
e 19 153
e 19 154
e 19 159
e 19 160
e 19 161
e 19 162
e 19 164
e 19 170
e 19 175
e 19 179
e 19 180
e 19 183
e 19 186
e 19 187
e 19 188
e 19 191
e 19 194
e 19 197
e 19 205
e 19 208
e 19 215
e 19 218
e 19 220
e 19 221
e 19 223
e 19 225
e 19 226
e 19 228
e 19 230
e 19 234
e 19 236
e 19 237
e 19 247
e 19 248
e 20 24
e 20 25
e 20 26
e 20 28
e 20 31
e 20 35
e 20 42
e 20 43
e 20 46
e 20 49
e 20 52
e 20 55
e 20 58
e 20 59
e 20 66
e 20 68
e 20 73
e 20 76
e 20 77
e 20 80
e 20 81
e 20 83
e 20 87
e 20 89
e 20 92
e 20 93
e 20 98
e 20 105
e 20 106
e 20 108
e 20 113
e 20 114
e 20 121
e 20 123
e 20 129
e 20 130
e 20 140
e 20 141
e 20 142
e 20 149
e 20 153
e 20 157
e 20 159
e 20 161
e 20 168
e 20 172
e 20 173
e 20 175
e 20 181
e 20 187
e 20 190
e 20 193
e 20 197
e 20 198
e 20 201
e 20 205
e 20 210
e 20 218
e 20 219
e 20 225
e 20 227
e 20 232
e 20 242
e 20 243
e 20 245
e 20 248
e 20 250
e 21 25
e 21 27
e 21 31
e 21 34
e 21 37
e 21 39
e 21 41
e 21 43
e 21 44
e 21 46
e 21 53
e 21 54
e 21 58
e 21 63
e 21 67
e 21 73
e 21 76
e 21 77
e 21 81
e 21 88
e 21 89
e 21 92
e 21 96
e 21 99
e 21 100
e 21 103
e 21 108
e 21 110
e 21 113
e 21 114
e 21 117
e 21 118
e 21 119
e 21 120
e 21 127
e 21 128
e 21 129
e 21 131
e 21 139
e 21 144
e 21 145
e 21 146
e 21 148
e 21 150
e 21 160
e 21 165
e 21 169
e 21 172
e 21 173
e 21 174
e 21 180
e 21 183
e 21 186
e 21 187
e 21 189
e 21 194
e 21 196
e 21 198
e 21 199
e 21 201
e 21 206
e 21 207
e 21 208
e 21 212
e 21 213
e 21 217
e 21 220
e 21 221
e 21 222
e 21 224
e 21 228
e 21 233
e 21 235
e 21 236
e 21 239
e 21 245
e 21 249
e 21 250
e 22 23
e 22 26
e 22 29
e 22 31
e 22 35
e 22 36
e 22 37
e 22 39
e 22 43
e 22 45
e 22 46
e 22 48
e 22 52
e 22 53
e 22 54
e 22 55
e 22 57
e 22 60
e 22 68
e 22 72
e 22 75
e 22 79
e 22 80
e 22 89
e 22 92
e 22 93
e 22 96
e 22 97
e 22 98
e 22 100
e 22 101
e 22 103
e 22 104
e 22 106
e 22 120
e 22 121
e 22 122
e 22 126
e 22 131
e 22 133
e 22 134
e 22 137
e 22 144
e 22 146
e 22 152
e 22 155
e 22 157
e 22 164
e 22 165
e 22 166
e 22 169
e 22 170
e 22 177
e 22 180
e 22 183
e 22 188
e 22 191
e 22 192
e 22 194
e 22 201
e 22 206
e 22 215
e 22 220
e 22 235
e 22 238
e 22 240
e 22 242
e 23 24
e 23 25
e 23 26
e 23 28
e 23 29
e 23 36
e 23 38
e 23 39
e 23 44
e 23 45
e 23 47
e 23 50
e 23 52
e 23 53
e 23 56
e 23 59
e 23 61
e 23 63
e 23 64
e 23 65
e 23 67
e 23 68
e 23 69
e 23 74
e 23 81
e 23 83
e 23 90
e 23 91
e 23 97
e 23 100
e 23 110
e 23 112
e 23 115
e 23 117
e 23 121
e 23 123
e 23 128
e 23 129
e 23 131
e 23 140
e 23 142
e 23 143
e 23 144
e 23 146
e 23 157
e 23 158
e 23 160
e 23 161
e 23 164
e 23 165
e 23 166
e 23 167
e 23 172
e 23 179
e 23 180
e 23 181
e 23 189
e 23 198
e 23 203
e 23 206
e 23 210
e 23 216
e 23 220
e 23 221
e 23 223
e 23 225
e 23 227
e 23 229
e 23 234
e 23 235
e 23 236
e 23 237
e 23 239
e 23 240
e 23 245
e 23 250
e 24 25
e 24 27
e 24 38
e 24 41
e 24 46
e 24 47
e 24 50
e 24 52
e 24 55
e 24 56
e 24 59
e 24 60
e 24 61
e 24 67
e 24 70
e 24 71
e 24 73
e 24 77
e 24 85
e 24 86
e 24 87
e 24 88
e 24 92
e 24 108
e 24 113
e 24 114
e 24 115
e 24 116
e 24 117
e 24 119
e 24 128
e 24 131
e 24 136
e 24 139
e 24 146
e 24 150
e 24 151
e 24 157
e 24 161
e 24 164
e 24 175
e 24 176
e 24 179
e 24 185
e 24 188
e 24 190
e 24 195
e 24 199
e 24 202
e 24 204
e 24 207
e 24 208
e 24 214
e 24 220
e 24 222
e 24 225
e 24 229
e 24 231
e 24 232
e 24 233
e 24 235
e 24 248
e 24 250
e 25 30
e 25 33
e 25 38
e 25 44
e 25 55
e 25 59
e 25 61
e 25 69
e 25 76
e 25 77
e 25 78
e 25 79
e 25 86
e 25 87
e 25 89
e 25 90
e 25 93
e 25 95
e 25 97
e 25 99
e 25 100
e 25 101
e 25 110
e 25 111
e 25 128
e 25 133
e 25 134
e 25 136
e 25 139
e 25 144
e 25 147
e 25 148
e 25 149
e 25 152
e 25 155
e 25 162
e 25 164
e 25 165
e 25 169
e 25 170
e 25 174
e 25 175
e 25 176
e 25 182
e 25 184
e 25 187
e 25 188
e 25 194
e 25 195
e 25 196
e 25 199
e 25 200
e 25 201
e 25 205
e 25 207
e 25 209
e 25 210
e 25 218
e 25 219
e 25 222
e 25 224
e 25 229
e 25 231
e 25 233
e 25 236
e 25 239
e 25 242
e 25 245
e 25 247
e 25 249
e 26 29
e 26 35
e 26 50
e 26 52
e 26 58
e 26 62
e 26 63
e 26 65
e 26 69
e 26 71
e 26 73
e 26 79
e 26 81
e 26 83
e 26 88
e 26 90
e 26 95
e 26 98
e 26 104
e 26 106
e 26 107
e 26 116
e 26 122
e 26 123
e 26 136
e 26 138
e 26 141
e 26 145
e 26 148
e 26 151
e 26 158
e 26 159
e 26 161
e 26 164
e 26 167
e 26 170
e 26 174
e 26 176
e 26 186
e 26 188
e 26 189
e 26 190
e 26 192
e 26 196
e 26 197
e 26 198
e 26 205
e 26 208
e 26 211
e 26 212
e 26 217
e 26 220
e 26 234
e 26 235
e 26 241
e 26 244
e 27 32
e 27 33
e 27 42
e 27 43
e 27 45
e 27 53
e 27 56
e 27 58
e 27 64
e 27 66
e 27 73
e 27 78
e 27 80
e 27 82
e 27 89
e 27 90
e 27 92
e 27 100
e 27 102
e 27 103
e 27 105
e 27 107
e 27 109
e 27 110
e 27 113
e 27 119
e 27 121
e 27 126
e 27 127
e 27 133
e 27 137
e 27 141
e 27 142
e 27 143
e 27 146
e 27 151
e 27 153
e 27 154
e 27 156
e 27 171
e 27 173
e 27 174
e 27 179
e 27 182
e 27 191
e 27 194
e 27 197
e 27 200
e 27 201
e 27 204
e 27 208
e 27 209
e 27 213
e 27 215
e 27 216
e 27 217
e 27 219
e 27 231
e 27 233
e 27 237
e 27 241
e 27 245
e 27 248
e 28 29
e 28 30
e 28 31
e 28 32
e 28 33
e 28 38
e 28 48
e 28 49
e 28 51
e 28 56
e 28 58
e 28 60
e 28 64
e 28 67
e 28 68
e 28 69
e 28 83
e 28 89
e 28 95
e 28 97
e 28 100
e 28 101
e 28 105
e 28 107
e 28 109
e 28 118
e 28 121
e 28 122
e 28 123
e 28 124
e 28 126
e 28 129
e 28 131
e 28 132
e 28 133
e 28 136
e 28 138
e 28 143
e 28 148
e 28 150
e 28 153
e 28 155
e 28 160
e 28 164
e 28 165
e 28 168
e 28 169
e 28 170
e 28 171
e 28 172
e 28 173
e 28 174
e 28 175
e 28 176
e 28 185
e 28 188
e 28 191
e 28 198
e 28 201
e 28 202
e 28 203
e 28 205
e 28 208
e 28 211
e 28 212
e 28 215
e 28 225
e 28 227
e 28 232
e 28 233
e 28 237
e 28 240
e 28 241
e 28 242
e 28 243
e 28 245
e 28 247
e 28 250
e 29 32
e 29 35
e 29 39
e 29 45
e 29 54
e 29 55
e 29 61
e 29 69
e 29 75
e 29 79
e 29 81
e 29 92
e 29 101
e 29 105
e 29 109
e 29 110
e 29 112
e 29 117
e 29 118
e 29 120
e 29 124
e 29 128
e 29 129
e 29 132
e 29 133
e 29 134
e 29 139
e 29 143
e 29 145
e 29 147
e 29 148
e 29 149
e 29 150
e 29 153
e 29 159
e 29 161
e 29 163
e 29 170
e 29 171
e 29 174
e 29 177
e 29 180
e 29 183
e 29 185
e 29 186
e 29 187
e 29 189
e 29 197
e 29 203
e 29 207
e 29 208
e 29 214
e 29 216
e 29 217
e 29 218
e 29 219
e 29 221
e 29 224
e 29 237
e 29 240
e 29 242
e 29 246
e 29 250
e 30 33
e 30 35
e 30 37
e 30 40
e 30 47
e 30 48
e 30 50
e 30 51
e 30 52
e 30 54
e 30 62
e 30 63
e 30 67
e 30 68
e 30 70
e 30 72
e 30 73
e 30 76
e 30 77
e 30 81
e 30 89
e 30 95
e 30 99
e 30 101
e 30 102
e 30 106
e 30 107
e 30 109
e 30 110
e 30 115
e 30 124
e 30 127
e 30 136
e 30 137
e 30 139
e 30 146
e 30 147
e 30 150
e 30 151
e 30 159
e 30 160
e 30 162
e 30 174
e 30 182
e 30 183
e 30 187
e 30 191
e 30 193
e 30 196
e 30 198
e 30 204
e 30 210
e 30 212
e 30 215
e 30 216
e 30 218
e 30 220
e 30 223
e 30 229
e 30 231
e 30 238
e 30 245
e 30 249
e 31 36
e 31 44
e 31 45
e 31 46
e 31 58
e 31 59
e 31 61
e 31 70
e 31 71
e 31 72
e 31 75
e 31 77
e 31 79
e 31 94
e 31 103
e 31 104
e 31 108
e 31 114
e 31 132
e 31 134
e 31 138
e 31 142
e 31 143
e 31 149
e 31 153
e 31 155
e 31 156
e 31 160
e 31 161
e 31 163
e 31 165
e 31 166
e 31 168
e 31 171
e 31 174
e 31 177
e 31 189
e 31 192
e 31 194
e 31 199
e 31 200
e 31 203
e 31 207
e 31 208
e 31 209
e 31 210
e 31 211
e 31 213
e 31 215
e 31 224
e 31 228
e 31 235
e 31 236
e 31 237
e 31 238
e 31 240
e 31 246
e 31 247
e 31 248
e 32 34
e 32 44
e 32 47
e 32 49
e 32 50
e 32 51
e 32 54
e 32 59
e 32 64
e 32 68
e 32 69
e 32 70
e 32 75
e 32 76
e 32 79
e 32 81
e 32 82
e 32 83
e 32 89
e 32 90
e 32 91
e 32 93
e 32 97
e 32 98
e 32 99
e 32 104
e 32 120
e 32 122
e 32 123
e 32 133
e 32 134
e 32 137
e 32 141
e 32 144
e 32 146
e 32 147
e 32 151
e 32 157
e 32 164
e 32 169
e 32 170
e 32 171
e 32 172
e 32 174
e 32 176
e 32 181
e 32 184
e 32 186
e 32 187
e 32 191
e 32 196
e 32 200
e 32 201
e 32 206
e 32 207
e 32 209
e 32 211
e 32 212
e 32 213
e 32 216
e 32 219
e 32 221
e 32 222
e 32 224
e 32 232
e 32 241
e 32 243
e 33 34
e 33 36
e 33 38
e 33 41
e 33 47
e 33 48
e 33 49
e 33 60
e 33 62
e 33 63
e 33 64
e 33 69
e 33 72
e 33 73
e 33 75
e 33 79
e 33 80
e 33 83
e 33 85
e 33 90
e 33 97
e 33 101
e 33 103
e 33 105
e 33 110
e 33 111
e 33 119
e 33 123
e 33 128
e 33 129
e 33 130
e 33 139
e 33 140
e 33 142
e 33 143
e 33 156
e 33 161
e 33 164
e 33 165
e 33 169
e 33 175
e 33 182
e 33 183
e 33 185
e 33 186
e 33 187
e 33 194
e 33 196
e 33 204
e 33 219
e 33 221
e 33 223
e 33 225
e 33 231
e 33 232
e 33 241
e 33 246
e 33 250
e 34 36
e 34 37
e 34 42
e 34 44
e 34 46
e 34 52
e 34 55
e 34 63
e 34 68
e 34 76
e 34 79
e 34 84
e 34 87
e 34 93
e 34 95
e 34 97
e 34 102
e 34 104
e 34 109
e 34 110
e 34 114
e 34 115
e 34 116
e 34 117
e 34 119
e 34 120
e 34 124
e 34 127
e 34 134
e 34 141
e 34 142
e 34 146
e 34 147
e 34 154
e 34 157
e 34 158
e 34 160
e 34 164
e 34 168
e 34 169
e 34 170
e 34 173
e 34 174
e 34 176
e 34 180
e 34 183
e 34 184
e 34 187
e 34 189
e 34 195
e 34 196
e 34 197
e 34 199
e 34 202
e 34 203
e 34 209
e 34 212
e 34 213
e 34 218
e 34 221
e 34 222
e 34 224
e 34 228
e 34 241
e 34 243
e 34 248
e 34 249
e 35 36
e 35 40
e 35 43
e 35 46
e 35 49
e 35 50
e 35 52
e 35 53
e 35 54
e 35 56
e 35 60
e 35 61
e 35 67
e 35 72
e 35 76
e 35 77
e 35 85
e 35 88
e 35 91
e 35 92
e 35 94
e 35 101
e 35 103
e 35 106
e 35 108
e 35 110
e 35 111
e 35 118
e 35 120
e 35 124
e 35 125
e 35 130
e 35 136
e 35 142
e 35 143
e 35 144
e 35 145
e 35 151
e 35 163
e 35 164
e 35 172
e 35 173
e 35 176
e 35 179
e 35 189
e 35 193
e 35 198
e 35 207
e 35 213
e 35 227
e 35 228
e 35 229
e 35 231
e 35 232
e 35 238
e 35 240
e 35 243
e 35 249
e 36 42
e 36 43
e 36 44
e 36 50
e 36 53
e 36 67
e 36 68
e 36 81
e 36 82
e 36 88
e 36 89
e 36 90
e 36 94
e 36 95
e 36 98
e 36 100
e 36 102
e 36 105
e 36 107
e 36 111
e 36 115
e 36 122
e 36 126
e 36 128
e 36 131
e 36 133
e 36 140
e 36 141
e 36 151
e 36 152
e 36 153
e 36 156
e 36 161
e 36 163
e 36 167
e 36 169
e 36 175
e 36 176
e 36 179
e 36 180
e 36 183
e 36 185
e 36 186
e 36 188
e 36 192
e 36 194
e 36 196
e 36 199
e 36 200
e 36 205
e 36 206
e 36 207
e 36 209
e 36 214
e 36 216
e 36 226
e 36 228
e 36 229
e 36 231
e 36 233
e 36 235
e 36 239
e 36 240
e 36 241
e 36 243
e 36 245
e 36 247
e 37 38
e 37 42
e 37 44
e 37 47
e 37 49
e 37 50
e 37 51
e 37 52
e 37 54
e 37 55
e 37 58
e 37 62
e 37 63
e 37 65
e 37 67
e 37 73
e 37 88
e 37 91
e 37 93
e 37 96
e 37 98
e 37 102
e 37 109
e 37 110
e 37 115
e 37 116
e 37 128
e 37 135
e 37 136
e 37 142
e 37 143
e 37 144
e 37 147
e 37 148
e 37 149
e 37 151
e 37 156
e 37 157
e 37 165
e 37 166
e 37 170
e 37 175
e 37 180
e 37 185
e 37 190
e 37 193
e 37 195
e 37 198
e 37 202
e 37 205
e 37 206
e 37 207
e 37 209
e 37 210
e 37 214
e 37 223
e 37 226
e 37 227
e 37 233
e 37 234
e 37 238
e 37 240
e 37 244
e 37 248
e 37 250
e 38 39
e 38 42
e 38 46
e 38 48
e 38 50
e 38 55
e 38 62
e 38 66
e 38 67
e 38 77
e 38 78
e 38 83
e 38 87
e 38 93
e 38 94
e 38 101
e 38 105
e 38 106
e 38 107
e 38 111
e 38 116
e 38 126
e 38 127
e 38 133
e 38 136
e 38 138
e 38 143
e 38 144
e 38 149
e 38 150
e 38 151
e 38 158
e 38 163
e 38 165
e 38 166
e 38 167
e 38 169
e 38 170
e 38 173
e 38 174
e 38 178
e 38 182
e 38 187
e 38 191
e 38 193
e 38 195
e 38 197
e 38 199
e 38 203
e 38 204
e 38 207
e 38 210
e 38 212
e 38 216
e 38 223
e 38 224
e 38 226
e 38 227
e 38 229
e 38 231
e 38 235
e 38 244
e 38 245
e 38 246
e 38 248
e 38 250
e 39 43
e 39 46
e 39 48
e 39 51
e 39 52
e 39 58
e 39 62
e 39 63
e 39 65
e 39 74
e 39 76
e 39 82
e 39 85
e 39 89
e 39 91
e 39 100
e 39 102
e 39 104
e 39 105
e 39 114
e 39 117
e 39 120
e 39 122
e 39 124
e 39 137
e 39 144
e 39 146
e 39 148
e 39 151
e 39 152
e 39 153
e 39 158
e 39 160
e 39 164
e 39 166
e 39 167
e 39 168
e 39 170
e 39 171
e 39 172
e 39 173
e 39 175
e 39 189
e 39 190
e 39 191
e 39 195
e 39 196
e 39 199
e 39 203
e 39 205
e 39 206
e 39 207
e 39 209
e 39 211
e 39 213
e 39 215
e 39 218
e 39 223
e 39 227
e 39 229
e 39 231
e 39 241
e 39 248
e 39 250
e 40 41
e 40 43
e 40 44
e 40 46
e 40 48
e 40 49
e 40 53
e 40 54
e 40 56
e 40 57
e 40 61
e 40 67
e 40 69
e 40 70
e 40 74
e 40 78
e 40 86
e 40 91
e 40 93
e 40 94
e 40 95
e 40 96
e 40 103
e 40 107
e 40 108
e 40 109
e 40 117
e 40 118
e 40 122
e 40 123
e 40 125
e 40 126
e 40 129
e 40 131
e 40 132
e 40 136
e 40 139
e 40 142
e 40 143
e 40 144
e 40 146
e 40 150
e 40 152
e 40 153
e 40 154
e 40 159
e 40 175
e 40 176
e 40 177
e 40 182
e 40 184
e 40 186
e 40 193
e 40 195
e 40 196
e 40 198
e 40 199
e 40 202
e 40 204
e 40 206
e 40 208
e 40 211
e 40 219
e 40 222
e 40 224
e 40 227
e 40 234
e 40 238
e 40 239
e 40 241
e 40 243
e 40 246
e 40 248
e 41 43
e 41 44
e 41 45
e 41 49
e 41 52
e 41 54
e 41 55
e 41 56
e 41 61
e 41 65
e 41 66
e 41 67
e 41 68
e 41 70
e 41 71
e 41 73
e 41 77
e 41 91
e 41 92
e 41 93
e 41 99
e 41 102
e 41 104
e 41 110
e 41 119
e 41 122
e 41 127
e 41 134
e 41 135
e 41 138
e 41 140
e 41 143
e 41 151
e 41 158
e 41 159
e 41 167
e 41 168
e 41 170
e 41 179
e 41 180
e 41 185
e 41 186
e 41 192
e 41 193
e 41 196
e 41 197
e 41 202
e 41 203
e 41 207
e 41 209
e 41 210
e 41 211
e 41 213
e 41 216
e 41 221
e 41 222
e 41 227
e 41 233
e 41 238
e 41 241
e 41 249
e 42 45
e 42 46
e 42 50
e 42 53
e 42 54
e 42 57
e 42 59
e 42 67
e 42 74
e 42 75
e 42 78
e 42 79
e 42 80
e 42 82
e 42 87
e 42 91
e 42 94
e 42 95
e 42 99
e 42 102
e 42 103
e 42 110
e 42 116
e 42 121
e 42 123
e 42 124
e 42 126
e 42 133
e 42 135
e 42 146
e 42 148
e 42 152
e 42 154
e 42 160
e 42 161
e 42 162
e 42 164
e 42 167
e 42 174
e 42 185
e 42 187
e 42 194
e 42 195
e 42 196
e 42 206
e 42 208
e 42 212
e 42 213
e 42 217
e 42 218
e 42 226
e 42 229
e 42 234
e 42 235
e 42 238
e 42 240
e 42 241
e 42 244
e 43 50
e 43 53
e 43 55
e 43 56
e 43 64
e 43 66
e 43 67
e 43 70
e 43 75
e 43 83
e 43 84
e 43 88
e 43 94
e 43 97
e 43 107
e 43 108
e 43 109
e 43 115
e 43 118
e 43 122
e 43 126
e 43 129
e 43 130
e 43 133
e 43 135
e 43 136
e 43 137
e 43 142
e 43 144
e 43 148
e 43 160
e 43 161
e 43 171
e 43 173
e 43 182
e 43 183
e 43 188
e 43 189
e 43 190
e 43 191
e 43 192
e 43 198
e 43 199
e 43 206
e 43 210
e 43 211
e 43 212
e 43 216
e 43 217
e 43 225
e 43 226
e 43 228
e 43 232
e 43 238
e 43 244
e 44 48
e 44 53
e 44 56
e 44 59
e 44 63
e 44 65
e 44 73
e 44 78
e 44 79
e 44 84
e 44 85
e 44 89
e 44 97
e 44 98
e 44 100
e 44 104
e 44 108
e 44 115
e 44 116
e 44 117
e 44 120
e 44 125
e 44 128
e 44 129
e 44 130
e 44 132
e 44 133
e 44 135
e 44 136
e 44 137
e 44 140
e 44 141
e 44 142
e 44 144
e 44 148
e 44 150
e 44 154
e 44 156
e 44 159
e 44 163
e 44 164
e 44 172
e 44 173
e 44 175
e 44 176
e 44 179
e 44 182
e 44 184
e 44 192
e 44 196
e 44 197
e 44 199
e 44 202
e 44 203
e 44 204
e 44 206
e 44 210
e 44 227
e 44 230
e 44 235
e 44 236
e 44 240
e 44 244
e 45 46
e 45 48
e 45 52
e 45 56
e 45 57
e 45 58
e 45 63
e 45 67
e 45 70
e 45 71
e 45 76
e 45 77
e 45 78
e 45 85
e 45 86
e 45 87
e 45 88
e 45 90
e 45 94
e 45 107
e 45 111
e 45 112
e 45 116
e 45 121
e 45 125
e 45 130
e 45 137
e 45 138
e 45 139
e 45 140
e 45 142
e 45 145
e 45 148
e 45 155
e 45 157
e 45 159
e 45 162
e 45 164
e 45 169
e 45 171
e 45 174
e 45 177
e 45 179
e 45 182
e 45 189
e 45 190
e 45 192
e 45 194
e 45 196
e 45 197
e 45 203
e 45 208
e 45 211
e 45 213
e 45 218
e 45 220
e 45 224
e 45 226
e 45 227
e 45 235
e 45 238
e 45 243
e 46 48
e 46 49
e 46 58
e 46 62
e 46 64
e 46 67
e 46 72
e 46 75
e 46 80
e 46 92
e 46 94
e 46 98
e 46 99
e 46 100
e 46 104
e 46 105
e 46 107
e 46 111
e 46 113
e 46 117
e 46 118
e 46 119
e 46 120
e 46 127
e 46 131
e 46 136
e 46 139
e 46 142
e 46 143
e 46 144
e 46 148
e 46 150
e 46 151
e 46 161
e 46 164
e 46 167
e 46 171
e 46 173
e 46 177
e 46 178
e 46 180
e 46 185
e 46 186
e 46 193
e 46 195
e 46 201
e 46 204
e 46 205
e 46 208
e 46 209
e 46 212
e 46 218
e 46 220
e 46 225
e 46 228
e 46 230
e 46 232
e 46 234
e 46 236
e 46 240
e 46 241
e 46 243
e 47 52
e 47 53
e 47 60
e 47 64
e 47 82
e 47 85
e 47 86
e 47 89
e 47 92
e 47 94
e 47 98
e 47 100
e 47 106
e 47 107
e 47 109
e 47 110
e 47 115
e 47 117
e 47 120
e 47 124
e 47 130
e 47 137
e 47 146
e 47 149
e 47 158
e 47 160
e 47 165
e 47 166
e 47 180
e 47 183
e 47 185
e 47 186
e 47 188
e 47 192
e 47 198
e 47 199
e 47 201
e 47 205
e 47 207
e 47 211
e 47 214
e 47 219
e 47 220
e 47 221
e 47 227
e 47 233
e 47 235
e 47 237
e 47 238
e 47 245
e 47 246
e 47 250
e 48 58
e 48 63
e 48 64
e 48 70
e 48 71
e 48 73
e 48 79
e 48 80
e 48 82
e 48 83
e 48 84
e 48 86
e 48 89
e 48 90
e 48 95
e 48 96
e 48 97
e 48 98
e 48 99
e 48 102
e 48 104
e 48 112
e 48 113
e 48 115
e 48 118
e 48 119
e 48 124
e 48 127
e 48 129
e 48 130
e 48 131
e 48 133
e 48 144
e 48 145
e 48 148
e 48 153
e 48 156
e 48 158
e 48 159
e 48 160
e 48 162
e 48 164
e 48 169
e 48 176
e 48 178
e 48 185
e 48 188
e 48 189
e 48 191
e 48 192
e 48 193
e 48 195
e 48 198
e 48 207
e 48 209
e 48 214
e 48 216
e 48 217
e 48 221
e 48 223
e 48 227
e 48 231
e 48 234
e 48 235
e 48 241
e 48 244
e 48 245
e 48 246
e 48 248
e 49 51
e 49 54
e 49 55
e 49 56
e 49 65
e 49 66
e 49 67
e 49 68
e 49 69
e 49 70
e 49 71
e 49 76
e 49 80
e 49 86
e 49 92
e 49 93
e 49 94
e 49 99
e 49 105
e 49 106
e 49 109
e 49 111
e 49 113
e 49 116
e 49 119
e 49 130
e 49 132
e 49 140
e 49 142
e 49 144
e 49 148
e 49 150
e 49 151
e 49 152
e 49 155
e 49 156
e 49 159
e 49 164
e 49 165
e 49 176
e 49 185
e 49 188
e 49 197
e 49 199
e 49 200
e 49 201
e 49 203
e 49 207
e 49 208
e 49 210
e 49 214
e 49 218
e 49 219
e 49 227
e 49 229
e 49 230
e 49 232
e 49 235
e 49 236
e 49 238
e 49 239
e 49 244
e 49 245
e 49 248
e 50 61
e 50 65
e 50 70
e 50 72
e 50 73
e 50 76
e 50 77
e 50 80
e 50 88
e 50 94
e 50 95
e 50 99
e 50 100
e 50 102
e 50 108
e 50 109
e 50 130
e 50 131
e 50 138
e 50 139
e 50 144
e 50 145
e 50 149
e 50 150
e 50 155
e 50 158
e 50 159
e 50 160
e 50 162
e 50 166
e 50 177
e 50 184
e 50 191
e 50 197
e 50 198
e 50 200
e 50 204
e 50 217
e 50 218
e 50 220
e 50 222
e 50 223
e 50 224
e 50 225
e 50 226
e 50 231
e 50 234
e 50 238
e 50 250
e 51 53
e 51 55
e 51 57
e 51 58
e 51 63
e 51 64
e 51 68
e 51 69
e 51 73
e 51 77
e 51 79
e 51 80
e 51 81
e 51 82
e 51 85
e 51 86
e 51 92
e 51 93
e 51 96
e 51 98
e 51 99
e 51 101
e 51 105
e 51 114
e 51 115
e 51 116
e 51 122
e 51 123
e 51 125
e 51 127
e 51 130
e 51 136
e 51 138
e 51 140
e 51 143
e 51 147
e 51 159
e 51 163
e 51 168
e 51 171
e 51 172
e 51 174
e 51 178
e 51 183
e 51 184
e 51 190
e 51 194
e 51 195
e 51 196
e 51 197
e 51 203
e 51 210
e 51 211
e 51 217
e 51 221
e 51 223
e 51 225
e 51 226
e 51 227
e 51 239
e 51 243
e 51 248
e 51 249
e 51 250
e 52 56
e 52 63
e 52 66
e 52 68
e 52 69
e 52 70
e 52 75
e 52 91
e 52 93
e 52 96
e 52 98
e 52 101
e 52 104
e 52 107
e 52 110
e 52 115
e 52 116
e 52 122
e 52 124
e 52 126
e 52 131
e 52 132
e 52 133
e 52 134
e 52 138
e 52 142
e 52 147
e 52 149
e 52 159
e 52 163
e 52 169
e 52 170
e 52 174
e 52 180
e 52 181
e 52 182
e 52 185
e 52 188
e 52 189
e 52 191
e 52 196
e 52 198
e 52 208
e 52 209
e 52 210
e 52 213
e 52 216
e 52 217
e 52 221
e 52 223
e 52 226
e 52 229
e 52 233
e 52 239
e 52 241
e 52 242
e 52 243
e 52 244
e 52 248
e 52 249
e 53 61
e 53 64
e 53 68
e 53 74
e 53 80
e 53 81
e 53 86
e 53 92
e 53 95
e 53 96
e 53 97
e 53 100
e 53 101
e 53 106
e 53 108
e 53 109
e 53 112
e 53 117
e 53 120
e 53 124
e 53 134
e 53 135
e 53 138
e 53 140
e 53 142
e 53 145
e 53 150
e 53 153
e 53 156
e 53 162
e 53 163
e 53 164
e 53 171
e 53 172
e 53 175
e 53 176
e 53 179
e 53 180
e 53 182
e 53 190
e 53 193
e 53 195
e 53 196
e 53 212
e 53 215
e 53 216
e 53 221
e 53 222
e 53 224
e 53 226
e 53 230
e 53 233
e 53 235
e 53 240
e 53 241
e 53 242
e 53 243
e 53 246
e 53 249
e 54 61
e 54 64
e 54 69
e 54 84
e 54 87
e 54 89
e 54 94
e 54 96
e 54 98
e 54 99
e 54 102
e 54 108
e 54 114
e 54 115
e 54 116
e 54 117
e 54 120
e 54 123
e 54 125
e 54 126
e 54 135
e 54 143
e 54 144
e 54 154
e 54 163
e 54 168
e 54 172
e 54 181
e 54 184
e 54 191
e 54 195
e 54 196
e 54 198
e 54 200
e 54 201
e 54 206
e 54 207
e 54 212
e 54 215
e 54 217
e 54 223
e 54 224
e 54 231
e 54 232
e 54 233
e 54 234
e 54 242
e 54 244
e 54 245
e 55 57
e 55 78
e 55 84
e 55 85
e 55 86
e 55 88
e 55 90
e 55 96
e 55 98
e 55 103
e 55 104
e 55 112
e 55 113
e 55 120
e 55 123
e 55 126
e 55 130
e 55 132
e 55 136
e 55 137
e 55 140
e 55 141
e 55 142
e 55 150
e 55 153
e 55 154
e 55 155
e 55 162
e 55 167
e 55 169
e 55 172
e 55 175
e 55 176
e 55 178
e 55 191
e 55 200
e 55 202
e 55 204
e 55 216
e 55 218
e 55 221
e 55 234
e 55 238
e 55 242
e 55 243
e 56 59
e 56 61
e 56 65
e 56 68
e 56 69
e 56 81
e 56 83
e 56 85
e 56 87
e 56 90
e 56 91
e 56 98
e 56 102
e 56 108
e 56 109
e 56 110
e 56 123
e 56 130
e 56 131
e 56 133
e 56 138
e 56 139
e 56 140
e 56 143
e 56 145
e 56 150
e 56 151
e 56 153
e 56 164
e 56 168
e 56 169
e 56 171
e 56 182
e 56 184
e 56 188
e 56 190
e 56 194
e 56 196
e 56 199
e 56 207
e 56 212
e 56 213
e 56 217
e 56 218
e 56 221
e 56 228
e 56 229
e 56 233
e 56 234
e 56 240
e 56 246
e 57 68
e 57 73
e 57 74
e 57 75
e 57 77
e 57 78
e 57 84
e 57 88
e 57 89
e 57 90
e 57 95
e 57 98
e 57 99
e 57 101
e 57 107
e 57 111
e 57 113
e 57 115
e 57 117
e 57 118
e 57 122
e 57 126
e 57 127
e 57 132
e 57 133
e 57 136
e 57 137
e 57 142
e 57 145
e 57 147
e 57 149
e 57 150
e 57 152
e 57 154
e 57 160
e 57 163
e 57 164
e 57 166
e 57 168
e 57 172
e 57 177
e 57 181
e 57 182
e 57 195
e 57 196
e 57 197
e 57 198
e 57 200
e 57 203
e 57 205
e 57 207
e 57 209
e 57 211
e 57 217
e 57 219
e 57 221
e 57 223
e 57 227
e 57 234
e 57 236
e 57 242
e 57 246
e 57 250
e 58 62
e 58 65
e 58 66
e 58 75
e 58 77
e 58 80
e 58 85
e 58 88
e 58 95
e 58 103
e 58 108
e 58 109
e 58 110
e 58 111
e 58 113
e 58 115
e 58 119
e 58 131
e 58 135
e 58 138
e 58 140
e 58 143
e 58 149
e 58 154
e 58 155
e 58 156
e 58 157
e 58 160
e 58 162
e 58 165
e 58 172
e 58 173
e 58 179
e 58 180
e 58 181
e 58 182
e 58 185
e 58 188
e 58 193
e 58 195
e 58 199
e 58 200
e 58 209
e 58 210
e 58 211
e 58 215
e 58 217
e 58 222
e 58 223
e 58 229
e 58 240
e 58 241
e 58 243
e 58 249
e 59 60
e 59 66
e 59 68
e 59 69
e 59 70
e 59 71
e 59 75
e 59 76
e 59 79
e 59 87
e 59 88
e 59 90
e 59 98
e 59 99
e 59 102
e 59 103
e 59 105
e 59 106
e 59 107
e 59 112
e 59 113
e 59 125
e 59 128
e 59 129
e 59 135
e 59 143
e 59 144
e 59 152
e 59 154
e 59 156
e 59 164
e 59 170
e 59 173
e 59 177
e 59 181
e 59 185
e 59 187
e 59 188
e 59 189
e 59 190
e 59 192
e 59 193
e 59 196
e 59 200
e 59 201
e 59 205
e 59 206
e 59 207
e 59 213
e 59 214
e 59 217
e 59 220
e 59 222
e 59 225
e 59 226
e 59 232
e 59 233
e 59 234
e 59 240
e 59 244
e 59 247
e 60 62
e 60 64
e 60 76
e 60 80
e 60 81
e 60 86
e 60 89
e 60 90
e 60 91
e 60 97
e 60 111
e 60 113
e 60 114
e 60 115
e 60 118
e 60 122
e 60 123
e 60 127
e 60 136
e 60 138
e 60 141
e 60 142
e 60 143
e 60 149
e 60 154
e 60 160
e 60 162
e 60 169
e 60 171
e 60 174
e 60 175
e 60 176
e 60 177
e 60 178
e 60 179
e 60 182
e 60 184
e 60 190
e 60 194
e 60 196
e 60 197
e 60 200
e 60 214
e 60 215
e 60 217
e 60 219
e 60 227
e 60 228
e 60 234
e 60 235
e 60 239
e 60 247
e 60 248
e 61 62
e 61 63
e 61 65
e 61 71
e 61 73
e 61 77
e 61 80
e 61 83
e 61 85
e 61 94
e 61 96
e 61 99
e 61 102
e 61 113
e 61 118
e 61 121
e 61 129
e 61 132
e 61 135
e 61 141
e 61 147
e 61 149
e 61 151
e 61 156
e 61 161
e 61 164
e 61 166
e 61 167
e 61 169
e 61 170
e 61 171
e 61 174
e 61 179
e 61 181
e 61 186
e 61 189
e 61 190
e 61 191
e 61 195
e 61 197
e 61 199
e 61 200
e 61 202
e 61 203
e 61 205
e 61 206
e 61 209
e 61 210
e 61 214
e 61 221
e 61 223
e 61 232
e 61 235
e 61 244
e 61 245
e 62 64
e 62 65
e 62 69
e 62 71
e 62 72
e 62 75
e 62 80
e 62 82
e 62 84
e 62 91
e 62 92
e 62 93
e 62 96
e 62 109
e 62 110
e 62 112
e 62 114
e 62 115
e 62 123
e 62 125
e 62 128
e 62 129
e 62 132
e 62 135
e 62 143
e 62 146
e 62 148
e 62 149
e 62 153
e 62 155
e 62 157
e 62 158
e 62 159
e 62 160
e 62 161
e 62 163
e 62 167
e 62 169
e 62 170
e 62 171
e 62 187
e 62 195
e 62 196
e 62 197
e 62 198
e 62 199
e 62 208
e 62 211
e 62 213
e 62 215
e 62 216
e 62 217
e 62 218
e 62 219
e 62 221
e 62 222
e 62 224
e 62 233
e 62 237
e 62 242
e 62 244
e 63 66
e 63 69
e 63 73
e 63 75
e 63 83
e 63 86
e 63 98
e 63 102
e 63 105
e 63 109
e 63 116
e 63 117
e 63 121
e 63 124
e 63 136
e 63 138
e 63 142
e 63 143
e 63 144
e 63 146
e 63 148
e 63 152
e 63 153
e 63 154
e 63 163
e 63 167
e 63 168
e 63 170
e 63 172
e 63 191
e 63 195
e 63 197
e 63 198
e 63 203
e 63 206
e 63 215
e 63 218
e 63 226
e 63 229
e 63 231
e 63 233
e 63 238
e 63 240
e 63 242
e 63 244
e 63 246
e 63 248
e 63 250
e 64 65
e 64 66
e 64 67
e 64 68
e 64 69
e 64 72
e 64 75
e 64 79
e 64 84
e 64 85
e 64 87
e 64 88
e 64 92
e 64 95
e 64 96
e 64 97
e 64 98
e 64 100
e 64 104
e 64 106
e 64 107
e 64 110
e 64 111
e 64 112
e 64 114
e 64 118
e 64 120
e 64 121
e 64 132
e 64 137
e 64 145
e 64 147
e 64 152
e 64 153
e 64 158
e 64 162
e 64 166
e 64 169
e 64 171
e 64 173
e 64 175
e 64 176
e 64 177
e 64 179
e 64 180
e 64 184
e 64 188
e 64 190
e 64 192
e 64 195
e 64 208
e 64 213
e 64 215
e 64 219
e 64 220
e 64 223
e 64 226
e 64 227
e 64 233
e 64 234
e 64 236
e 64 237
e 64 238
e 64 240
e 64 243
e 64 248
e 65 68
e 65 72
e 65 74
e 65 87
e 65 90
e 65 91
e 65 92
e 65 93
e 65 94
e 65 95
e 65 100
e 65 108
e 65 110
e 65 126
e 65 130
e 65 131
e 65 137
e 65 138
e 65 140
e 65 141
e 65 145
e 65 148
e 65 149
e 65 150
e 65 152
e 65 153
e 65 161
e 65 165
e 65 169
e 65 172
e 65 173
e 65 175
e 65 179
e 65 180
e 65 181
e 65 182
e 65 184
e 65 188
e 65 189
e 65 191
e 65 194
e 65 197
e 65 200
e 65 201
e 65 208
e 65 210
e 65 211
e 65 213
e 65 219
e 65 222
e 65 224
e 65 225
e 65 232
e 65 233
e 65 235
e 65 236
e 65 240
e 65 242
e 65 244
e 65 247
e 65 249
e 66 73
e 66 76
e 66 77
e 66 79
e 66 80
e 66 81
e 66 82
e 66 84
e 66 86
e 66 87
e 66 96
e 66 103
e 66 105
e 66 108
e 66 109
e 66 114
e 66 115
e 66 116
e 66 117
e 66 121
e 66 123
e 66 125
e 66 126
e 66 129
e 66 131
e 66 132
e 66 136
e 66 145
e 66 148
e 66 150
e 66 152
e 66 154
e 66 156
e 66 158
e 66 161
e 66 168
e 66 172
e 66 176
e 66 180
e 66 181
e 66 186
e 66 187
e 66 188
e 66 195
e 66 197
e 66 200
e 66 201
e 66 208
e 66 215
e 66 221
e 66 229
e 66 230
e 66 232
e 66 233
e 66 237
e 66 241
e 66 243
e 66 244
e 66 245
e 66 247
e 66 250
e 67 68
e 67 70
e 67 72
e 67 78
e 67 83
e 67 87
e 67 90
e 67 91
e 67 93
e 67 104
e 67 105
e 67 106
e 67 109
e 67 112
e 67 117
e 67 126
e 67 129
e 67 130
e 67 131
e 67 133
e 67 134
e 67 136
e 67 137
e 67 138
e 67 153
e 67 155
e 67 156
e 67 157
e 67 160
e 67 164
e 67 168
e 67 171
e 67 176
e 67 183
e 67 184
e 67 187
e 67 191
e 67 192
e 67 194
e 67 199
e 67 210
e 67 217
e 67 220
e 67 226
e 67 227
e 67 228
e 67 229
e 67 236
e 67 240
e 67 245
e 67 246
e 67 247
e 67 249
e 67 250
e 68 71
e 68 72
e 68 73
e 68 74
e 68 76
e 68 78
e 68 79
e 68 87
e 68 88
e 68 93
e 68 94
e 68 95
e 68 96
e 68 100
e 68 102
e 68 103
e 68 110
e 68 111
e 68 113
e 68 124
e 68 130
e 68 131
e 68 132
e 68 134
e 68 135
e 68 139
e 68 141
e 68 145
e 68 146
e 68 147
e 68 150
e 68 161
e 68 165
e 68 166
e 68 174
e 68 175
e 68 182
e 68 189
e 68 190
e 68 191
e 68 196
e 68 198
e 68 199
e 68 208
e 68 209
e 68 212
e 68 213
e 68 214
e 68 216
e 68 219
e 68 235
e 68 244
e 68 245
e 68 247
e 69 70
e 69 71
e 69 73
e 69 81
e 69 82
e 69 83
e 69 85
e 69 86
e 69 90
e 69 92
e 69 110
e 69 113
e 69 114
e 69 115
e 69 119
e 69 120
e 69 121
e 69 125
e 69 126
e 69 130
e 69 138
e 69 148
e 69 155
e 69 159
e 69 163
e 69 164
e 69 172
e 69 173
e 69 174
e 69 176
e 69 177
e 69 181
e 69 182
e 69 184
e 69 186
e 69 187
e 69 190
e 69 192
e 69 196
e 69 198
e 69 199
e 69 200
e 69 204
e 69 205
e 69 207
e 69 208
e 69 211
e 69 212
e 69 213
e 69 214
e 69 216
e 69 219
e 69 220
e 69 227
e 69 231
e 69 232
e 69 239
e 69 240
e 69 242
e 69 243
e 69 250
e 70 77
e 70 80
e 70 81
e 70 82
e 70 83
e 70 86
e 70 88
e 70 90
e 70 91
e 70 95
e 70 96
e 70 99
e 70 106
e 70 111
e 70 112
e 70 116
e 70 120
e 70 121
e 70 123
e 70 128
e 70 129
e 70 130
e 70 131
e 70 133
e 70 134
e 70 142
e 70 145
e 70 147
e 70 149
e 70 150
e 70 152
e 70 159
e 70 160
e 70 161
e 70 162
e 70 163
e 70 166
e 70 167
e 70 169
e 70 170
e 70 172
e 70 175
e 70 180
e 70 185
e 70 189
e 70 194
e 70 196
e 70 203
e 70 209
e 70 210
e 70 213
e 70 216
e 70 218
e 70 220
e 70 225
e 70 230
e 70 231
e 70 234
e 70 236
e 70 239
e 70 242
e 70 245
e 70 246
e 70 250
e 71 74
e 71 77
e 71 78
e 71 79
e 71 87
e 71 91
e 71 106
e 71 109
e 71 110
e 71 113
e 71 115
e 71 117
e 71 120
e 71 124
e 71 126
e 71 127
e 71 131
e 71 134
e 71 142
e 71 146
e 71 150
e 71 151
e 71 154
e 71 156
e 71 158
e 71 165
e 71 169
e 71 170
e 71 171
e 71 176
e 71 178
e 71 181
e 71 186
e 71 191
e 71 194
e 71 199
e 71 200
e 71 202
e 71 204
e 71 207
e 71 209
e 71 211
e 71 212
e 71 216
e 71 217
e 71 223
e 71 224
e 71 225
e 71 226
e 71 228
e 71 232
e 71 233
e 71 235
e 71 236
e 71 237
e 71 238
e 71 246
e 72 76
e 72 77
e 72 78
e 72 79
e 72 85
e 72 87
e 72 88
e 72 93
e 72 94
e 72 99
e 72 103
e 72 104
e 72 117
e 72 123
e 72 130
e 72 131
e 72 138
e 72 139
e 72 140
e 72 148
e 72 151
e 72 154
e 72 165
e 72 171
e 72 172
e 72 173
e 72 180
e 72 181
e 72 184
e 72 187
e 72 189
e 72 200
e 72 201
e 72 202
e 72 207
e 72 208
e 72 209
e 72 211
e 72 218
e 72 219
e 72 220
e 72 223
e 72 230
e 72 235
e 72 240
e 72 245
e 72 248
e 73 74
e 73 76
e 73 82
e 73 86
e 73 91
e 73 97
e 73 101
e 73 107
e 73 109
e 73 110
e 73 114
e 73 116
e 73 117
e 73 125
e 73 129
e 73 130
e 73 131
e 73 132
e 73 134
e 73 140
e 73 143
e 73 144
e 73 147
e 73 151
e 73 153
e 73 156
e 73 159
e 73 161
e 73 162
e 73 173
e 73 174
e 73 179
e 73 186
e 73 188
e 73 203
e 73 206
e 73 207
e 73 209
e 73 210
e 73 213
e 73 216
e 73 221
e 73 224
e 73 227
e 73 231
e 73 232
e 73 234
e 73 235
e 73 239
e 73 240
e 73 241
e 73 246
e 74 76
e 74 78
e 74 87
e 74 89
e 74 94
e 74 96
e 74 97
e 74 98
e 74 99
e 74 101
e 74 105
e 74 106
e 74 107
e 74 111
e 74 115
e 74 121
e 74 123
e 74 130
e 74 131
e 74 138
e 74 140
e 74 142
e 74 144
e 74 149
e 74 151
e 74 160
e 74 165
e 74 166
e 74 167
e 74 171
e 74 174
e 74 175
e 74 176
e 74 179
e 74 180
e 74 181
e 74 188
e 74 189
e 74 191
e 74 194
e 74 204
e 74 209
e 74 210
e 74 211
e 74 212
e 74 219
e 74 221
e 74 228
e 74 231
e 74 235
e 74 238
e 74 243
e 74 247
e 74 248
e 75 76
e 75 81
e 75 82
e 75 83
e 75 85
e 75 87
e 75 91
e 75 92
e 75 95
e 75 96
e 75 99
e 75 103
e 75 104
e 75 106
e 75 107
e 75 108
e 75 116
e 75 117
e 75 125
e 75 126
e 75 127
e 75 138
e 75 141
e 75 142
e 75 145
e 75 149
e 75 150
e 75 155
e 75 160
e 75 161
e 75 162
e 75 164
e 75 175
e 75 179
e 75 182
e 75 184
e 75 190
e 75 197
e 75 200
e 75 203
e 75 204
e 75 205
e 75 212
e 75 216
e 75 221
e 75 238
e 75 242
e 75 247
e 75 248
e 76 77
e 76 78
e 76 79
e 76 82
e 76 85
e 76 87
e 76 89
e 76 91
e 76 94
e 76 99
e 76 102
e 76 110
e 76 112
e 76 118
e 76 120
e 76 125
e 76 128
e 76 130
e 76 131
e 76 133
e 76 139
e 76 140
e 76 146
e 76 151
e 76 156
e 76 157
e 76 159
e 76 162
e 76 167
e 76 170
e 76 174
e 76 178
e 76 179
e 76 181
e 76 182
e 76 188
e 76 189
e 76 190
e 76 193
e 76 195
e 76 196
e 76 198
e 76 204
e 76 206
e 76 208
e 76 217
e 76 219
e 76 226
e 76 229
e 76 230
e 76 234
e 76 235
e 76 236
e 76 239
e 76 240
e 76 241
e 76 242
e 76 243
e 76 244
e 76 245
e 76 250
e 77 78
e 77 84
e 77 89
e 77 90
e 77 91
e 77 93
e 77 100
e 77 114
e 77 116
e 77 120
e 77 123
e 77 124
e 77 125
e 77 141
e 77 142
e 77 144
e 77 152
e 77 153
e 77 163
e 77 170
e 77 173
e 77 174
e 77 175
e 77 177
e 77 181
e 77 182
e 77 183
e 77 186
e 77 190
e 77 191
e 77 192
e 77 195
e 77 196
e 77 201
e 77 202
e 77 203
e 77 211
e 77 215
e 77 218
e 77 221
e 77 224
e 77 228
e 77 229
e 77 231
e 77 232
e 77 234
e 77 236
e 77 237
e 77 238
e 77 249
e 78 82
e 78 83
e 78 91
e 78 94
e 78 99
e 78 100
e 78 107
e 78 108
e 78 109
e 78 112
e 78 113
e 78 115
e 78 118
e 78 122
e 78 123
e 78 127
e 78 128
e 78 133
e 78 134
e 78 135
e 78 139
e 78 144
e 78 146
e 78 149
e 78 152
e 78 153
e 78 154
e 78 155
e 78 156
e 78 158
e 78 161
e 78 168
e 78 174
e 78 175
e 78 179
e 78 183
e 78 187
e 78 189
e 78 196
e 78 197
e 78 204
e 78 205
e 78 207
e 78 210
e 78 216
e 78 220
e 78 227
e 78 228
e 78 229
e 78 237
e 78 239
e 78 248
e 78 249
e 79 81
e 79 83
e 79 87
e 79 90
e 79 104
e 79 106
e 79 107
e 79 111
e 79 112
e 79 113
e 79 116
e 79 120
e 79 122
e 79 130
e 79 133
e 79 136
e 79 138
e 79 139
e 79 143
e 79 144
e 79 146
e 79 147
e 79 149
e 79 150
e 79 154
e 79 160
e 79 162
e 79 167
e 79 170
e 79 182
e 79 184
e 79 185
e 79 187
e 79 193
e 79 197
e 79 198
e 79 200
e 79 201
e 79 203
e 79 209
e 79 210
e 79 223
e 79 234
e 79 235
e 79 242
e 80 82
e 80 83
e 80 84
e 80 92
e 80 96
e 80 99
e 80 100
e 80 101
e 80 104
e 80 108
e 80 109
e 80 114
e 80 121
e 80 122
e 80 123
e 80 125
e 80 126
e 80 129
e 80 134
e 80 137
e 80 140
e 80 141
e 80 151
e 80 153
e 80 154
e 80 155
e 80 156
e 80 165
e 80 167
e 80 169
e 80 172
e 80 173
e 80 175
e 80 178
e 80 179
e 80 180
e 80 181
e 80 183
e 80 186
e 80 199
e 80 200
e 80 201
e 80 205
e 80 208
e 80 214
e 80 215
e 80 216
e 80 222
e 80 223
e 80 226
e 80 232
e 80 233
e 80 236
e 80 237
e 80 241
e 80 242
e 80 243
e 80 247
e 80 248
e 81 82
e 81 84
e 81 85
e 81 86
e 81 98
e 81 100
e 81 102
e 81 103
e 81 128
e 81 132
e 81 134
e 81 140
e 81 141
e 81 142
e 81 143
e 81 147
e 81 150
e 81 152
e 81 154
e 81 157
e 81 161
e 81 164
e 81 165
e 81 166
e 81 171
e 81 173
e 81 174
e 81 178
e 81 180
e 81 182
e 81 184
e 81 191
e 81 192
e 81 195
e 81 197
e 81 199
e 81 200
e 81 201
e 81 203
e 81 211
e 81 214
e 81 215
e 81 220
e 81 223
e 81 225
e 81 229
e 81 231
e 81 234
e 81 235
e 81 237
e 81 242
e 82 86
e 82 90
e 82 93
e 82 103
e 82 108
e 82 109
e 82 110
e 82 114
e 82 128
e 82 131
e 82 132
e 82 134
e 82 136
e 82 137
e 82 144
e 82 148
e 82 152
e 82 154
e 82 156
e 82 160
e 82 163
e 82 165
e 82 172
e 82 181
e 82 182
e 82 183
e 82 186
e 82 187
e 82 191
e 82 192
e 82 194
e 82 195
e 82 197
e 82 206
e 82 210
e 82 211
e 82 213
e 82 220
e 82 231
e 82 233
e 82 234
e 82 238
e 82 243
e 82 244
e 83 90
e 83 94
e 83 95
e 83 104
e 83 107
e 83 108
e 83 110
e 83 111
e 83 114
e 83 117
e 83 118
e 83 129
e 83 131
e 83 135
e 83 140
e 83 141
e 83 143
e 83 146
e 83 149
e 83 151
e 83 152
e 83 153
e 83 159
e 83 165
e 83 168
e 83 169
e 83 170
e 83 177
e 83 178
e 83 179
e 83 180
e 83 182
e 83 188
e 83 189
e 83 190
e 83 191
e 83 196
e 83 197
e 83 200
e 83 204
e 83 208
e 83 213
e 83 215
e 83 217
e 83 223
e 83 224
e 83 226
e 83 227
e 83 235
e 83 236
e 83 248
e 84 85
e 84 88
e 84 97
e 84 98
e 84 99
e 84 101
e 84 105
e 84 107
e 84 110
e 84 115
e 84 120
e 84 125
e 84 128
e 84 133
e 84 134
e 84 140
e 84 144
e 84 148
e 84 152
e 84 156
e 84 167
e 84 175
e 84 179
e 84 185
e 84 186
e 84 187
e 84 190
e 84 198
e 84 201
e 84 205
e 84 211
e 84 213
e 84 215
e 84 218
e 84 219
e 84 221
e 84 222
e 84 225
e 84 232
e 84 233
e 84 235
e 84 237
e 84 241
e 84 243
e 84 244
e 84 246
e 84 247
e 84 250
e 85 86
e 85 96
e 85 102
e 85 103
e 85 104
e 85 115
e 85 118
e 85 119
e 85 122
e 85 132
e 85 133
e 85 134
e 85 135
e 85 139
e 85 141
e 85 142
e 85 145
e 85 152
e 85 154
e 85 156
e 85 161
e 85 166
e 85 168
e 85 169
e 85 174
e 85 175
e 85 177
e 85 179
e 85 180
e 85 183
e 85 184
e 85 188
e 85 189
e 85 192
e 85 198
e 85 207
e 85 209
e 85 211
e 85 214
e 85 216
e 85 220
e 85 224
e 85 230
e 85 231
e 85 236
e 85 237
e 85 246
e 85 248
e 85 249
e 86 88
e 86 91
e 86 94
e 86 97
e 86 99
e 86 101
e 86 108
e 86 115
e 86 118
e 86 124
e 86 130
e 86 143
e 86 147
e 86 149
e 86 151
e 86 154
e 86 155
e 86 156
e 86 162
e 86 165
e 86 166
e 86 167
e 86 172
e 86 178
e 86 181
e 86 183
e 86 185
e 86 190
e 86 193
e 86 196
e 86 202
e 86 207
e 86 211
e 86 212
e 86 215
e 86 218
e 86 228
e 86 232
e 86 241
e 86 242
e 86 243
e 86 244
e 86 249
e 87 94
e 87 98
e 87 102
e 87 103
e 87 104
e 87 113
e 87 119
e 87 121
e 87 129
e 87 131
e 87 134
e 87 137
e 87 138
e 87 143
e 87 145
e 87 151
e 87 152
e 87 155
e 87 159
e 87 160
e 87 161
e 87 163
e 87 166
e 87 170
e 87 172
e 87 177
e 87 179
e 87 180
e 87 182
e 87 183
e 87 185
e 87 198
e 87 200
e 87 203
e 87 210
e 87 211
e 87 217
e 87 218
e 87 222
e 87 223
e 87 230
e 87 239
e 87 240
e 87 244
e 87 250
e 88 95
e 88 99
e 88 103
e 88 108
e 88 109
e 88 112
e 88 116
e 88 117
e 88 118
e 88 121
e 88 123
e 88 124
e 88 137
e 88 139
e 88 143
e 88 145
e 88 147
e 88 148
e 88 150
e 88 151
e 88 154
e 88 156
e 88 165
e 88 170
e 88 171
e 88 172
e 88 175
e 88 179
e 88 180
e 88 182
e 88 191
e 88 198
e 88 199
e 88 208
e 88 209
e 88 216
e 88 217
e 88 219
e 88 224
e 88 226
e 88 231
e 88 233
e 88 234
e 88 238
e 88 239
e 88 241
e 88 242
e 88 243
e 88 246
e 88 248
e 89 91
e 89 98
e 89 101
e 89 102
e 89 104
e 89 110
e 89 111
e 89 121
e 89 124
e 89 129
e 89 131
e 89 132
e 89 135
e 89 147
e 89 153
e 89 155
e 89 163
e 89 164
e 89 168
e 89 171
e 89 172
e 89 179
e 89 182
e 89 191
e 89 199
e 89 200
e 89 209
e 89 211
e 89 214
e 89 215
e 89 217
e 89 221
e 89 222
e 89 223
e 89 225
e 89 230
e 89 231
e 89 233
e 89 234
e 89 236
e 89 239
e 89 240
e 89 248
e 89 249
e 89 250
e 90 92
e 90 93
e 90 95
e 90 103
e 90 112
e 90 113
e 90 115
e 90 136
e 90 137
e 90 140
e 90 147
e 90 148
e 90 151
e 90 153
e 90 157
e 90 159
e 90 164
e 90 165
e 90 167
e 90 169
e 90 172
e 90 174
e 90 177
e 90 180
e 90 181
e 90 184
e 90 187
e 90 189
e 90 199
e 90 200
e 90 213
e 90 222
e 90 224
e 90 231
e 90 237
e 90 240
e 90 241
e 91 93
e 91 94
e 91 95
e 91 96
e 91 99
e 91 100
e 91 102
e 91 107
e 91 108
e 91 111
e 91 115
e 91 118
e 91 119
e 91 120
e 91 121
e 91 130
e 91 131
e 91 132
e 91 134
e 91 135
e 91 141
e 91 143
e 91 144
e 91 146
e 91 147
e 91 153
e 91 154
e 91 169
e 91 172
e 91 180
e 91 181
e 91 184
e 91 185
e 91 186
e 91 191
e 91 192
e 91 194
e 91 196
e 91 198
e 91 200
e 91 206
e 91 210
e 91 211
e 91 213
e 91 216
e 91 218
e 91 220
e 91 223
e 91 225
e 91 226
e 91 227
e 91 228
e 91 235
e 91 237
e 91 239
e 91 240
e 91 246
e 91 248
e 91 250
e 92 93
e 92 96
e 92 103
e 92 104
e 92 106
e 92 108
e 92 113
e 92 116
e 92 117
e 92 122
e 92 125
e 92 127
e 92 128
e 92 129
e 92 130
e 92 131
e 92 135
e 92 141
e 92 152
e 92 153
e 92 154
e 92 167
e 92 170
e 92 173
e 92 179
e 92 183
e 92 185
e 92 186
e 92 187
e 92 188
e 92 190
e 92 191
e 92 192
e 92 194
e 92 195
e 92 196
e 92 205
e 92 210
e 92 220
e 92 223
e 92 224
e 92 225
e 92 234
e 92 237
e 92 238
e 92 239
e 92 240
e 92 242
e 93 94
e 93 95
e 93 105
e 93 106
e 93 112
e 93 116
e 93 118
e 93 119
e 93 120
e 93 121
e 93 124
e 93 126
e 93 130
e 93 139
e 93 141
e 93 143
e 93 153
e 93 156
e 93 158
e 93 161
e 93 164
e 93 169
e 93 171
e 93 172
e 93 175
e 93 180
e 93 182
e 93 187
e 93 188
e 93 192
e 93 197
e 93 200
e 93 205
e 93 207
e 93 209
e 93 212
e 93 214
e 93 215
e 93 216
e 93 218
e 93 222
e 93 223
e 93 224
e 93 225
e 93 228
e 93 231
e 93 237
e 93 240
e 93 241
e 93 242
e 93 244
e 93 246
e 93 247
e 94 95
e 94 97
e 94 102
e 94 106
e 94 108
e 94 109
e 94 112
e 94 118
e 94 124
e 94 125
e 94 128
e 94 129
e 94 133
e 94 136
e 94 137
e 94 139
e 94 140
e 94 142
e 94 143
e 94 144
e 94 147
e 94 148
e 94 154
e 94 159
e 94 163
e 94 164
e 94 167
e 94 169
e 94 170
e 94 172
e 94 173
e 94 174
e 94 176
e 94 177
e 94 178
e 94 181
e 94 182
e 94 184
e 94 190
e 94 200
e 94 201
e 94 202
e 94 205
e 94 207
e 94 209
e 94 210
e 94 223
e 94 224
e 94 225
e 94 228
e 94 237
e 94 242
e 94 244
e 95 97
e 95 98
e 95 99
e 95 100
e 95 102
e 95 105
e 95 108
e 95 113
e 95 116
e 95 121
e 95 122
e 95 124
e 95 127
e 95 128
e 95 129
e 95 130
e 95 133
e 95 136
e 95 137
e 95 138
e 95 144
e 95 145
e 95 147
e 95 149
e 95 155
e 95 158
e 95 160
e 95 166
e 95 167
e 95 172
e 95 175
e 95 179
e 95 183
e 95 190
e 95 193
e 95 196
e 95 206
e 95 207
e 95 212
e 95 216
e 95 217
e 95 218
e 95 219
e 95 222
e 95 227
e 95 233
e 95 234
e 95 238
e 95 239
e 95 242
e 95 243
e 95 247
e 95 248
e 96 97
e 96 99
e 96 107
e 96 108
e 96 111
e 96 112
e 96 114
e 96 117
e 96 121
e 96 124
e 96 125
e 96 131
e 96 133
e 96 151
e 96 157
e 96 160
e 96 161
e 96 167
e 96 168
e 96 173
e 96 175
e 96 180
e 96 182
e 96 185
e 96 188
e 96 189
e 96 191
e 96 192
e 96 193
e 96 194
e 96 195
e 96 198
e 96 199
e 96 203
e 96 204
e 96 205
e 96 207
e 96 212
e 96 216
e 96 221
e 96 225
e 96 231
e 96 236
e 96 238
e 96 246
e 96 247
e 96 249
e 97 98
e 97 105
e 97 107
e 97 112
e 97 115
e 97 116
e 97 117
e 97 119
e 97 120
e 97 122
e 97 125
e 97 126
e 97 128
e 97 134
e 97 135
e 97 139
e 97 140
e 97 141
e 97 142
e 97 144
e 97 149
e 97 153
e 97 155
e 97 156
e 97 157
e 97 158
e 97 159
e 97 161
e 97 162
e 97 164
e 97 166
e 97 172
e 97 173
e 97 175
e 97 180
e 97 186
e 97 187
e 97 189
e 97 191
e 97 205
e 97 212
e 97 216
e 97 236
e 97 237
e 97 239
e 97 242
e 97 245
e 97 246
e 97 249
e 98 99
e 98 101
e 98 110
e 98 113
e 98 114
e 98 119
e 98 122
e 98 125
e 98 126
e 98 129
e 98 133
e 98 140
e 98 151
e 98 152
e 98 154
e 98 158
e 98 160
e 98 166
e 98 167
e 98 172
e 98 177
e 98 184
e 98 185
e 98 191
e 98 195
e 98 196
e 98 202
e 98 211
e 98 212
e 98 214
e 98 215
e 98 217
e 98 222
e 98 224
e 98 226
e 98 227
e 98 233
e 98 234
e 98 239
e 98 241
e 98 245
e 99 101
e 99 102
e 99 121
e 99 122
e 99 125
e 99 128
e 99 132
e 99 133
e 99 135
e 99 137
e 99 140
e 99 142
e 99 143
e 99 144
e 99 146
e 99 147
e 99 150
e 99 154
e 99 157
e 99 158
e 99 162
e 99 163
e 99 166
e 99 178
e 99 179
e 99 184
e 99 185
e 99 186
e 99 187
e 99 192
e 99 196
e 99 199
e 99 204
e 99 208
e 99 209
e 99 210
e 99 212
e 99 213
e 99 214
e 99 216
e 99 218
e 99 219
e 99 223
e 99 225
e 99 227
e 99 228
e 99 238
e 99 242
e 99 243
e 99 244
e 99 246
e 99 247
e 100 101
e 100 102
e 100 103
e 100 105
e 100 107
e 100 109
e 100 110
e 100 119
e 100 122
e 100 125
e 100 127
e 100 133
e 100 138
e 100 148
e 100 153
e 100 155
e 100 159
e 100 163
e 100 165
e 100 166
e 100 167
e 100 173
e 100 177
e 100 178
e 100 181
e 100 193
e 100 194
e 100 195
e 100 196
e 100 197
e 100 198
e 100 204
e 100 208
e 100 209
e 100 211
e 100 216
e 100 217
e 100 218
e 100 224
e 100 231
e 100 232
e 100 236
e 100 240
e 100 244
e 100 248
e 100 250
e 101 104
e 101 112
e 101 115
e 101 116
e 101 119
e 101 122
e 101 127
e 101 128
e 101 129
e 101 132
e 101 134
e 101 135
e 101 138
e 101 140
e 101 141
e 101 144
e 101 146
e 101 149
e 101 150
e 101 152
e 101 154
e 101 155
e 101 158
e 101 161
e 101 162
e 101 163
e 101 164
e 101 165
e 101 175
e 101 177
e 101 180
e 101 181
e 101 184
e 101 188
e 101 189
e 101 190
e 101 192
e 101 195
e 101 197
e 101 198
e 101 202
e 101 204
e 101 219
e 101 234
e 101 243
e 101 250
e 102 106
e 102 116
e 102 120
e 102 122
e 102 124
e 102 125
e 102 128
e 102 132
e 102 135
e 102 138
e 102 139
e 102 140
e 102 143
e 102 148
e 102 151
e 102 157
e 102 158
e 102 162
e 102 174
e 102 179
e 102 182
e 102 185
e 102 186
e 102 195
e 102 198
e 102 199
e 102 206
e 102 209
e 102 212
e 102 215
e 102 216
e 102 219
e 102 223
e 102 224
e 102 225
e 102 227
e 102 234
e 102 236
e 102 237
e 102 238
e 102 239
e 102 241
e 102 244
e 102 248
e 103 105
e 103 111
e 103 120
e 103 122
e 103 123
e 103 129
e 103 133
e 103 139
e 103 143
e 103 155
e 103 160
e 103 171
e 103 172
e 103 175
e 103 176
e 103 182
e 103 195
e 103 197
e 103 200
e 103 204
e 103 209
e 103 211
e 103 217
e 103 219
e 103 220
e 103 222
e 103 223
e 103 224
e 103 228
e 103 229
e 103 232
e 103 236
e 103 240
e 103 241
e 103 245
e 104 110
e 104 111
e 104 113
e 104 114
e 104 116
e 104 123
e 104 126
e 104 129
e 104 130
e 104 131
e 104 134
e 104 139
e 104 141
e 104 142
e 104 143
e 104 147
e 104 148
e 104 153
e 104 154
e 104 160
e 104 161
e 104 163
e 104 167
e 104 170
e 104 174
e 104 184
e 104 187
e 104 192
e 104 196
e 104 206
e 104 208
e 104 209
e 104 210
e 104 212
e 104 213
e 104 222
e 104 227
e 104 228
e 104 233
e 104 234
e 104 239
e 104 240
e 104 244
e 104 248
e 105 109
e 105 111
e 105 112
e 105 117
e 105 120
e 105 132
e 105 133
e 105 134
e 105 135
e 105 136
e 105 139
e 105 140
e 105 141
e 105 146
e 105 147
e 105 153
e 105 155
e 105 160
e 105 161
e 105 162
e 105 165
e 105 166
e 105 172
e 105 173
e 105 181
e 105 183
e 105 185
e 105 188
e 105 189
e 105 192
e 105 195
e 105 201
e 105 203
e 105 213
e 105 214
e 105 221
e 105 222
e 105 223
e 105 224
e 105 226
e 105 231
e 105 233
e 105 234
e 105 236
e 105 237
e 105 244
e 105 248
e 106 116
e 106 119
e 106 120
e 106 121
e 106 128
e 106 132
e 106 136
e 106 148
e 106 153
e 106 154
e 106 160
e 106 165
e 106 168
e 106 169
e 106 177
e 106 181
e 106 183
e 106 187
e 106 189
e 106 192
e 106 195
e 106 197
e 106 199
e 106 200
e 106 204
e 106 207
e 106 210
e 106 211
e 106 213
e 106 218
e 106 219
e 106 222
e 106 229
e 106 231
e 106 232
e 106 233
e 106 236
e 106 244
e 106 249
e 106 250
e 107 112
e 107 116
e 107 117
e 107 118
e 107 119
e 107 120
e 107 129
e 107 132
e 107 133
e 107 135
e 107 139
e 107 147
e 107 150
e 107 154
e 107 155
e 107 160
e 107 161
e 107 164
e 107 170
e 107 176
e 107 177
e 107 178
e 107 181
e 107 182
e 107 189
e 107 190
e 107 191
e 107 202
e 107 203
e 107 204
e 107 210
e 107 221
e 107 223
e 107 227
e 107 228
e 107 232
e 107 236
e 107 240
e 107 243
e 107 244
e 107 249
e 108 109
e 108 111
e 108 114
e 108 120
e 108 121
e 108 122
e 108 123
e 108 124
e 108 126
e 108 132
e 108 133
e 108 136
e 108 141
e 108 144
e 108 145
e 108 149
e 108 150
e 108 152
e 108 153
e 108 156
e 108 157
e 108 161
e 108 163
e 108 169
e 108 171
e 108 172
e 108 175
e 108 177
e 108 180
e 108 183
e 108 187
e 108 188
e 108 190
e 108 193
e 108 199
e 108 200
e 108 201
e 108 202
e 108 203
e 108 206
e 108 209
e 108 212
e 108 220
e 108 224
e 108 225
e 108 229
e 108 230
e 108 231
e 108 233
e 108 236
e 108 238
e 108 239
e 108 240
e 108 244
e 108 247
e 108 248
e 108 249
e 109 113
e 109 123
e 109 130
e 109 131
e 109 132
e 109 134
e 109 135
e 109 136
e 109 143
e 109 144
e 109 146
e 109 150
e 109 153
e 109 159
e 109 160
e 109 163
e 109 167
e 109 173
e 109 174
e 109 176
e 109 177
e 109 183
e 109 190
e 109 193
e 109 198
e 109 199
e 109 200
e 109 204
e 109 206
e 109 212
e 109 225
e 109 226
e 109 230
e 109 237
e 109 240
e 109 244
e 109 248
e 110 111
e 110 114
e 110 117
e 110 124
e 110 125
e 110 126
e 110 129
e 110 131
e 110 137
e 110 138
e 110 140
e 110 141
e 110 144
e 110 147
e 110 150
e 110 159
e 110 175
e 110 179
e 110 182
e 110 184
e 110 191
e 110 194
e 110 198
e 110 201
e 110 207
e 110 210
e 110 220
e 110 221
e 110 226
e 110 227
e 110 232
e 110 234
e 110 236
e 110 244
e 110 245
e 110 247
e 111 112
e 111 114
e 111 117
e 111 119
e 111 123
e 111 129
e 111 133
e 111 147
e 111 149
e 111 150
e 111 159
e 111 162
e 111 167
e 111 168
e 111 176
e 111 182
e 111 185
e 111 187
e 111 191
e 111 192
e 111 195
e 111 197
e 111 201
e 111 213
e 111 219
e 111 220
e 111 221
e 111 222
e 111 223
e 111 224
e 111 229
e 111 232
e 111 237
e 111 238
e 111 239
e 111 240
e 111 241
e 111 244
e 111 245
e 111 246
e 111 247
e 111 248
e 112 113
e 112 114
e 112 116
e 112 117
e 112 118
e 112 121
e 112 122
e 112 123
e 112 135
e 112 138
e 112 140
e 112 149
e 112 155
e 112 165
e 112 169
e 112 170
e 112 172
e 112 178
e 112 180
e 112 192
e 112 193
e 112 194
e 112 195
e 112 197
e 112 208
e 112 211
e 112 222
e 112 224
e 112 226
e 112 227
e 112 228
e 112 229
e 112 230
e 112 233
e 112 237
e 112 248
e 113 116
e 113 121
e 113 123
e 113 129
e 113 131
e 113 133
e 113 134
e 113 136
e 113 139
e 113 140
e 113 141
e 113 142
e 113 154
e 113 157
e 113 160
e 113 161
e 113 171
e 113 174
e 113 175
e 113 176
e 113 178
e 113 182
e 113 184
e 113 187
e 113 188
e 113 194
e 113 198
e 113 199
e 113 201
e 113 203
e 113 204
e 113 205
e 113 210
e 113 211
e 113 213
e 113 217
e 113 218
e 113 220
e 113 225
e 113 227
e 113 235
e 113 237
e 113 239
e 113 246
e 114 115
e 114 121
e 114 131
e 114 133
e 114 134
e 114 136
e 114 141
e 114 145
e 114 146
e 114 149
e 114 155
e 114 156
e 114 158
e 114 171
e 114 173
e 114 175
e 114 178
e 114 179
e 114 180
e 114 184
e 114 186
e 114 188
e 114 189
e 114 192
e 114 193
e 114 194
e 114 196
e 114 202
e 114 218
e 114 219
e 114 220
e 114 221
e 114 224
e 114 225
e 114 235
e 114 238
e 114 240
e 114 249
e 114 250
e 115 116
e 115 119
e 115 124
e 115 126
e 115 134
e 115 138
e 115 139
e 115 140
e 115 141
e 115 146
e 115 148
e 115 150
e 115 153
e 115 155
e 115 161
e 115 164
e 115 166
e 115 167
e 115 169
e 115 173
e 115 176
e 115 177
e 115 182
e 115 183
e 115 186
e 115 199
e 115 204
e 115 206
e 115 207
e 115 208
e 115 210
e 115 211
e 115 217
e 115 221
e 115 222
e 115 223
e 115 230
e 115 233
e 115 235
e 115 236
e 115 239
e 115 244
e 115 245
e 116 118
e 116 125
e 116 127
e 116 129
e 116 136
e 116 139
e 116 144
e 116 145
e 116 157
e 116 164
e 116 165
e 116 167
e 116 172
e 116 188
e 116 191
e 116 195
e 116 196
e 116 199
e 116 203
e 116 205
e 116 213
e 116 217
e 116 222
e 116 226
e 116 227
e 116 229
e 116 233
e 116 234
e 116 235
e 116 243
e 116 246
e 116 248
e 116 250
e 117 120
e 117 127
e 117 128
e 117 134
e 117 137
e 117 141
e 117 147
e 117 150
e 117 153
e 117 157
e 117 159
e 117 163
e 117 173
e 117 174
e 117 178
e 117 181
e 117 188
e 117 189
e 117 190
e 117 194
e 117 195
e 117 197
e 117 198
e 117 200
e 117 201
e 117 206
e 117 207
e 117 209
e 117 210
e 117 214
e 117 219
e 117 224
e 117 227
e 117 234
e 117 237
e 117 239
e 117 240
e 117 247
e 117 249
e 118 119
e 118 121
e 118 123
e 118 130
e 118 135
e 118 136
e 118 139
e 118 152
e 118 157
e 118 161
e 118 162
e 118 164
e 118 171
e 118 172
e 118 174
e 118 184
e 118 185
e 118 186
e 118 190
e 118 194
e 118 196
e 118 198
e 118 199
e 118 200
e 118 201
e 118 208
e 118 209
e 118 212
e 118 217
e 118 219
e 118 222
e 118 224
e 118 225
e 118 232
e 118 238
e 118 239
e 118 249
e 118 250
e 119 120
e 119 151
e 119 155
e 119 157
e 119 158
e 119 161
e 119 162
e 119 163
e 119 166
e 119 173
e 119 179
e 119 186
e 119 189
e 119 190
e 119 207
e 119 213
e 119 216
e 119 217
e 119 220
e 119 224
e 119 226
e 119 227
e 119 229
e 119 230
e 119 232
e 119 234
e 119 237
e 119 238
e 119 240
e 119 242
e 119 247
e 119 248
e 119 250
e 120 126
e 120 128
e 120 134
e 120 139
e 120 146
e 120 149
e 120 154
e 120 159
e 120 163
e 120 166
e 120 169
e 120 174
e 120 176
e 120 179
e 120 181
e 120 182
e 120 190
e 120 192
e 120 193
e 120 194
e 120 199
e 120 216
e 120 217
e 120 221
e 120 222
e 120 224
e 120 227
e 120 228
e 120 229
e 120 231
e 120 234
e 120 244
e 120 247
e 120 248
e 120 250
e 121 123
e 121 130
e 121 131
e 121 132
e 121 134
e 121 135
e 121 139
e 121 143
e 121 144
e 121 148
e 121 153
e 121 163
e 121 166
e 121 170
e 121 171
e 121 173
e 121 174
e 121 175
e 121 178
e 121 179
e 121 181
e 121 183
e 121 186
e 121 190
e 121 197
e 121 198
e 121 201
e 121 202
e 121 210
e 121 211
e 121 215
e 121 222
e 121 223
e 121 232
e 121 241
e 121 243
e 121 244
e 121 246
e 121 247
e 122 123
e 122 124
e 122 126
e 122 130
e 122 137
e 122 141
e 122 144
e 122 145
e 122 146
e 122 150
e 122 153
e 122 162
e 122 166
e 122 173
e 122 176
e 122 184
e 122 189
e 122 194
e 122 199
e 122 202
e 122 203
e 122 205
e 122 209
e 122 210
e 122 211
e 122 223
e 122 235
e 122 239
e 122 240
e 122 242
e 122 248
e 122 249
e 122 250
e 123 126
e 123 131
e 123 132
e 123 133
e 123 135
e 123 137
e 123 139
e 123 143
e 123 153
e 123 158
e 123 159
e 123 160
e 123 161
e 123 162
e 123 166
e 123 170
e 123 177
e 123 180
e 123 182
e 123 185
e 123 190
e 123 191
e 123 193
e 123 196
e 123 197
e 123 201
e 123 207
e 123 208
e 123 211
e 123 216
e 123 217
e 123 219
e 123 223
e 123 227
e 123 228
e 123 230
e 123 234
e 123 235
e 123 239
e 123 240
e 123 241
e 123 247
e 123 249
e 124 128
e 124 132
e 124 133
e 124 140
e 124 144
e 124 145
e 124 146
e 124 148
e 124 154
e 124 155
e 124 156
e 124 161
e 124 163
e 124 164
e 124 166
e 124 170
e 124 171
e 124 172
e 124 175
e 124 176
e 124 180
e 124 181
e 124 183
e 124 192
e 124 195
e 124 196
e 124 199
e 124 200
e 124 204
e 124 206
e 124 216
e 124 217
e 124 219
e 124 222
e 124 228
e 124 229
e 124 236
e 124 237
e 124 238
e 124 239
e 124 246
e 124 249
e 125 130
e 125 144
e 125 146
e 125 148
e 125 159
e 125 163
e 125 164
e 125 168
e 125 170
e 125 173
e 125 180
e 125 182
e 125 189
e 125 193
e 125 196
e 125 205
e 125 206
e 125 208
e 125 209
e 125 215
e 125 219
e 125 220
e 125 223
e 125 224
e 125 225
e 125 226
e 125 231
e 125 235
e 125 236
e 125 249
e 125 250
e 126 128
e 126 129
e 126 133
e 126 135
e 126 139
e 126 146
e 126 148
e 126 151
e 126 158
e 126 161
e 126 167
e 126 169
e 126 173
e 126 174
e 126 176
e 126 178
e 126 182
e 126 185
e 126 188
e 126 190
e 126 193
e 126 195
e 126 197
e 126 201
e 126 206
e 126 208
e 126 209
e 126 210
e 126 217
e 126 218
e 126 222
e 126 226
e 126 227
e 126 230
e 126 241
e 126 242
e 126 243
e 126 245
e 126 248
e 127 130
e 127 134
e 127 142
e 127 145
e 127 146
e 127 156
e 127 163
e 127 166
e 127 172
e 127 173
e 127 175
e 127 182
e 127 187
e 127 188
e 127 190
e 127 191
e 127 194
e 127 195
e 127 196
e 127 197
e 127 198
e 127 199
e 127 201
e 127 202
e 127 205
e 127 206
e 127 207
e 127 208
e 127 209
e 127 214
e 127 216
e 127 219
e 127 226
e 127 228
e 127 230
e 127 235
e 127 240
e 127 242
e 127 250
e 128 133
e 128 136
e 128 137
e 128 144
e 128 152
e 128 155
e 128 156
e 128 161
e 128 169
e 128 178
e 128 191
e 128 196
e 128 204
e 128 212
e 128 213
e 128 225
e 128 228
e 128 231
e 128 235
e 128 237
e 128 242
e 128 243
e 129 133
e 129 139
e 129 141
e 129 142
e 129 143
e 129 144
e 129 146
e 129 150
e 129 152
e 129 155
e 129 157
e 129 159
e 129 168
e 129 169
e 129 178
e 129 180
e 129 182
e 129 185
e 129 186
e 129 187
e 129 195
e 129 196
e 129 197
e 129 198
e 129 202
e 129 206
e 129 210
e 129 212
e 129 215
e 129 231
e 129 232
e 129 236
e 129 240
e 129 242
e 129 243
e 129 246
e 130 139
e 130 142
e 130 147
e 130 148
e 130 150
e 130 151
e 130 156
e 130 164
e 130 169
e 130 175
e 130 176
e 130 182
e 130 184
e 130 189
e 130 192
e 130 198
e 130 201
e 130 203
e 130 204
e 130 205
e 130 206
e 130 211
e 130 216
e 130 217
e 130 221
e 130 225
e 130 226
e 130 230
e 130 235
e 130 236
e 130 237
e 130 240
e 130 243
e 130 246
e 131 132
e 131 133
e 131 134
e 131 136
e 131 137
e 131 141
e 131 145
e 131 147
e 131 154
e 131 156
e 131 162
e 131 167
e 131 169
e 131 170
e 131 171
e 131 177
e 131 180
e 131 185
e 131 194
e 131 198
e 131 199
e 131 208
e 131 209
e 131 210
e 131 211
e 131 216
e 131 223
e 131 226
e 131 227
e 131 229
e 131 230
e 131 231
e 131 233
e 131 240
e 131 249
e 132 134
e 132 136
e 132 141
e 132 143
e 132 144
e 132 148
e 132 151
e 132 153
e 132 155
e 132 156
e 132 159
e 132 164
e 132 165
e 132 166
e 132 168
e 132 170
e 132 172
e 132 177
e 132 182
e 132 183
e 132 185
e 132 189
e 132 197
e 132 198
e 132 206
e 132 208
e 132 212
e 132 214
e 132 218
e 132 219
e 132 223
e 132 227
e 132 231
e 132 237
e 132 245
e 133 136
e 133 137
e 133 139
e 133 140
e 133 141
e 133 142
e 133 144
e 133 145
e 133 150
e 133 154
e 133 159
e 133 160
e 133 163
e 133 165
e 133 166
e 133 172
e 133 173
e 133 178
e 133 183
e 133 184
e 133 185
e 133 188
e 133 192
e 133 194
e 133 195
e 133 197
e 133 201
e 133 207
e 133 209
e 133 217
e 133 219
e 133 222
e 133 232
e 133 235
e 133 237
e 133 239
e 133 245
e 133 247
e 134 136
e 134 139
e 134 141
e 134 144
e 134 149
e 134 150
e 134 153
e 134 154
e 134 155
e 134 161
e 134 165
e 134 174
e 134 182
e 134 188
e 134 189
e 134 190
e 134 193
e 134 199
e 134 202
e 134 205
e 134 208
e 134 214
e 134 215
e 134 218
e 134 223
e 134 235
e 134 236
e 134 238
e 134 240
e 134 248
e 134 249
e 135 136
e 135 138
e 135 140
e 135 141
e 135 142
e 135 147
e 135 152
e 135 154
e 135 157
e 135 161
e 135 163
e 135 164
e 135 174
e 135 182
e 135 183
e 135 190
e 135 191
e 135 194
e 135 202
e 135 203
e 135 204
e 135 205
e 135 210
e 135 211
e 135 214
e 135 215
e 135 216
e 135 217
e 135 225
e 135 227
e 135 232
e 135 234
e 135 238
e 135 239
e 135 243
e 135 244
e 135 249
e 136 138
e 136 139
e 136 144
e 136 146
e 136 148
e 136 151
e 136 158
e 136 160
e 136 166
e 136 168
e 136 170
e 136 175
e 136 180
e 136 182
e 136 187
e 136 189
e 136 195
e 136 198
e 136 200
e 136 201
e 136 202
e 136 204
e 136 205
e 136 206
e 136 208
e 136 209
e 136 210
e 136 211
e 136 213
e 136 215
e 136 218
e 136 219
e 136 220
e 136 224
e 136 228
e 136 229
e 136 236
e 136 241
e 136 242
e 136 244
e 136 245
e 136 246
e 136 248
e 136 250
e 137 140
e 137 147
e 137 148
e 137 152
e 137 154
e 137 155
e 137 156
e 137 157
e 137 158
e 137 159
e 137 162
e 137 165
e 137 169
e 137 175
e 137 180
e 137 181
e 137 182
e 137 189
e 137 190
e 137 191
e 137 193
e 137 195
e 137 196
e 137 201
e 137 202
e 137 204
e 137 205
e 137 209
e 137 214
e 137 215
e 137 216
e 137 219
e 137 221
e 137 227
e 137 228
e 137 240
e 137 242
e 137 244
e 137 246
e 138 141
e 138 142
e 138 146
e 138 147
e 138 149
e 138 150
e 138 151
e 138 154
e 138 156
e 138 164
e 138 167
e 138 168
e 138 169
e 138 172
e 138 176
e 138 177
e 138 190
e 138 193
e 138 199
e 138 201
e 138 202
e 138 204
e 138 206
e 138 210
e 138 211
e 138 214
e 138 220
e 138 221
e 138 223
e 138 224
e 138 225
e 138 231
e 138 232
e 138 235
e 139 142
e 139 143
e 139 144
e 139 164
e 139 167
e 139 170
e 139 171
e 139 172
e 139 178
e 139 184
e 139 185
e 139 187
e 139 190
e 139 193
e 139 195
e 139 196
e 139 198
e 139 199
e 139 201
e 139 206
e 139 208
e 139 209
e 139 211
e 139 213
e 139 217
e 139 222
e 139 224
e 139 226
e 139 237
e 139 242
e 139 243
e 139 248
e 140 148
e 140 150
e 140 152
e 140 157
e 140 158
e 140 160
e 140 162
e 140 163
e 140 174
e 140 175
e 140 178
e 140 180
e 140 181
e 140 182
e 140 183
e 140 185
e 140 186
e 140 189
e 140 192
e 140 198
e 140 202
e 140 203
e 140 205
e 140 206
e 140 210
e 140 211
e 140 214
e 140 216
e 140 218
e 140 223
e 140 224
e 140 225
e 140 228
e 140 229
e 140 235
e 140 239
e 141 145
e 141 146
e 141 150
e 141 158
e 141 172
e 141 180
e 141 184
e 141 186
e 141 192
e 141 194
e 141 195
e 141 198
e 141 200
e 141 210
e 141 211
e 141 213
e 141 214
e 141 216
e 141 224
e 141 228
e 141 229
e 141 231
e 141 232
e 141 233
e 141 235
e 141 244
e 141 248
e 142 144
e 142 146
e 142 148
e 142 153
e 142 155
e 142 157
e 142 158
e 142 159
e 142 162
e 142 164
e 142 166
e 142 172
e 142 175
e 142 176
e 142 178
e 142 179
e 142 181
e 142 186
e 142 187
e 142 189
e 142 193
e 142 196
e 142 201
e 142 203
e 142 206
e 142 213
e 142 214
e 142 217
e 142 219
e 142 220
e 142 228
e 142 229
e 142 232
e 142 234
e 142 241
e 142 247
e 142 249
e 142 250
e 143 145
e 143 157
e 143 161
e 143 162
e 143 163
e 143 172
e 143 174
e 143 177
e 143 180
e 143 181
e 143 183
e 143 188
e 143 189
e 143 194
e 143 195
e 143 199
e 143 207
e 143 208
e 143 211
e 143 213
e 143 221
e 143 222
e 143 223
e 143 225
e 143 231
e 143 232
e 143 244
e 144 148
e 144 152
e 144 154
e 144 155
e 144 156
e 144 157
e 144 158
e 144 159
e 144 163
e 144 164
e 144 165
e 144 167
e 144 170
e 144 176
e 144 178
e 144 182
e 144 187
e 144 191
e 144 196
e 144 200
e 144 201
e 144 202
e 144 206
e 144 213
e 144 214
e 144 216
e 144 220
e 144 222
e 144 231
e 144 233
e 144 235
e 144 237
e 144 238
e 144 241
e 144 242
e 144 245
e 144 246
e 144 248
e 145 147
e 145 152
e 145 155
e 145 164
e 145 171
e 145 176
e 145 179
e 145 185
e 145 186
e 145 195
e 145 199
e 145 205
e 145 207
e 145 209
e 145 210
e 145 213
e 145 214
e 145 216
e 145 218
e 145 221
e 145 228
e 145 233
e 145 235
e 145 236
e 145 237
e 145 239
e 145 240
e 145 244
e 145 246
e 146 150
e 146 152
e 146 159
e 146 163
e 146 164
e 146 166
e 146 171
e 146 172
e 146 175
e 146 181
e 146 183
e 146 185
e 146 186
e 146 196
e 146 204
e 146 205
e 146 211
e 146 213
e 146 214
e 146 217
e 146 224
e 146 227
e 146 228
e 146 229
e 146 230
e 146 232
e 146 233
e 146 234
e 146 238
e 146 246
e 146 247
e 146 248
e 147 155
e 147 159
e 147 163
e 147 164
e 147 168
e 147 175
e 147 180
e 147 181
e 147 183
e 147 186
e 147 187
e 147 189
e 147 195
e 147 198
e 147 202
e 147 204
e 147 208
e 147 209
e 147 210
e 147 212
e 147 214
e 147 216
e 147 218
e 147 229
e 147 238
e 147 243
e 147 245
e 147 247
e 148 150
e 148 154
e 148 156
e 148 159
e 148 160
e 148 162
e 148 165
e 148 166
e 148 178
e 148 189
e 148 192
e 148 197
e 148 198
e 148 201
e 148 205
e 148 211
e 148 214
e 148 222
e 148 227
e 148 229
e 148 231
e 148 236
e 148 240
e 148 241
e 148 242
e 148 245
e 149 152
e 149 155
e 149 156
e 149 157
e 149 159
e 149 165
e 149 167
e 149 173
e 149 180
e 149 185
e 149 186
e 149 188
e 149 190
e 149 194
e 149 196
e 149 201
e 149 205
e 149 206
e 149 208
e 149 212
e 149 214
e 149 215
e 149 216
e 149 222
e 149 227
e 149 228
e 149 229
e 149 236
e 149 237
e 149 238
e 149 243
e 149 245
e 149 248
e 149 249
e 150 158
e 150 161
e 150 162
e 150 163
e 150 166
e 150 170
e 150 173
e 150 176
e 150 178
e 150 180
e 150 181
e 150 182
e 150 183
e 150 185
e 150 190
e 150 193
e 150 194
e 150 195
e 150 199
e 150 200
e 150 201
e 150 209
e 150 216
e 150 217
e 150 219
e 150 223
e 150 224
e 150 225
e 150 227
e 150 237
e 150 240
e 151 152
e 151 155
e 151 157
e 151 158
e 151 160
e 151 161
e 151 165
e 151 169
e 151 173
e 151 177
e 151 178
e 151 201
e 151 204
e 151 208
e 151 209
e 151 210
e 151 212
e 151 214
e 151 221
e 151 222
e 151 225
e 151 226
e 151 228
e 151 229
e 151 233
e 151 234
e 151 236
e 151 241
e 152 153
e 152 154
e 152 156
e 152 158
e 152 159
e 152 163
e 152 164
e 152 167
e 152 168
e 152 170
e 152 172
e 152 175
e 152 177
e 152 195
e 152 196
e 152 199
e 152 202
e 152 205
e 152 212
e 152 216
e 152 217
e 152 219
e 152 224
e 152 227
e 152 228
e 152 233
e 152 237
e 152 238
e 152 241
e 152 244
e 152 248
e 152 250
e 153 158
e 153 162
e 153 168
e 153 178
e 153 179
e 153 182
e 153 187
e 153 188
e 153 190
e 153 191
e 153 195
e 153 198
e 153 200
e 153 203
e 153 208
e 153 214
e 153 222
e 153 224
e 153 227
e 153 230
e 153 237
e 153 243
e 153 246
e 153 247
e 153 250
e 154 157
e 154 161
e 154 163
e 154 165
e 154 168
e 154 175
e 154 179
e 154 180
e 154 185
e 154 186
e 154 195
e 154 196
e 154 203
e 154 204
e 154 205
e 154 207
e 154 208
e 154 210
e 154 217
e 154 222
e 154 227
e 154 229
e 154 231
e 154 239
e 154 248
e 155 156
e 155 157
e 155 163
e 155 167
e 155 170
e 155 171
e 155 172
e 155 174
e 155 175
e 155 177
e 155 178
e 155 182
e 155 188
e 155 205
e 155 214
e 155 215
e 155 217
e 155 218
e 155 220
e 155 221
e 155 225
e 155 227
e 155 232
e 155 233
e 155 235
e 155 242
e 155 243
e 155 245
e 155 246
e 156 158
e 156 159
e 156 160
e 156 163
e 156 164
e 156 177
e 156 179
e 156 186
e 156 190
e 156 191
e 156 192
e 156 195
e 156 199
e 156 205
e 156 208
e 156 211
e 156 212
e 156 216
e 156 217
e 156 218
e 156 225
e 156 228
e 156 230
e 156 232
e 156 234
e 156 237
e 156 243
e 156 248
e 157 158
e 157 159
e 157 161
e 157 163
e 157 168
e 157 169
e 157 175
e 157 179
e 157 184
e 157 185
e 157 187
e 157 188
e 157 192
e 157 193
e 157 195
e 157 201
e 157 202
e 157 204
e 157 207
e 157 209
e 157 212
e 157 213
e 157 214
e 157 218
e 157 226
e 157 228
e 157 231
e 157 234
e 157 240
e 157 250
e 158 159
e 158 160
e 158 166
e 158 167
e 158 168
e 158 170
e 158 171
e 158 177
e 158 178
e 158 179
e 158 180
e 158 182
e 158 183
e 158 187
e 158 188
e 158 192
e 158 193
e 158 195
e 158 201
e 158 202
e 158 205
e 158 207
e 158 208
e 158 209
e 158 210
e 158 213
e 158 218
e 158 219
e 158 227
e 158 231
e 158 238
e 158 246
e 158 247
e 159 160
e 159 161
e 159 164
e 159 165
e 159 175
e 159 177
e 159 181
e 159 183
e 159 186
e 159 189
e 159 192
e 159 194
e 159 196
e 159 199
e 159 204
e 159 207
e 159 209
e 159 211
e 159 219
e 159 221
e 159 223
e 159 224
e 159 228
e 159 239
e 159 241
e 159 243
e 159 247
e 159 249
e 159 250
e 160 161
e 160 163
e 160 164
e 160 165
e 160 166
e 160 170
e 160 173
e 160 176
e 160 177
e 160 181
e 160 185
e 160 187
e 160 189
e 160 190
e 160 191
e 160 199
e 160 208
e 160 210
e 160 211
e 160 214
e 160 217
e 160 218
e 160 225
e 160 230
e 160 234
e 160 248
e 161 167
e 161 168
e 161 171
e 161 172
e 161 179
e 161 183
e 161 185
e 161 188
e 161 193
e 161 201
e 161 202
e 161 204
e 161 205
e 161 213
e 161 219
e 161 228
e 161 230
e 161 235
e 161 240
e 161 242
e 161 247
e 161 249
e 161 250
e 162 165
e 162 171
e 162 176
e 162 177
e 162 181
e 162 183
e 162 184
e 162 187
e 162 188
e 162 190
e 162 192
e 162 194
e 162 197
e 162 203
e 162 205
e 162 207
e 162 216
e 162 217
e 162 219
e 162 221
e 162 222
e 162 223
e 162 231
e 162 237
e 162 240
e 162 241
e 162 242
e 162 243
e 162 244
e 162 246
e 162 248
e 163 164
e 163 169
e 163 178
e 163 185
e 163 191
e 163 197
e 163 203
e 163 204
e 163 205
e 163 207
e 163 210
e 163 211
e 163 216
e 163 217
e 163 225
e 163 227
e 163 230
e 163 231
e 163 236
e 163 237
e 163 239
e 163 242
e 163 245
e 163 246
e 163 250
e 164 169
e 164 171
e 164 178
e 164 181
e 164 185
e 164 192
e 164 196
e 164 203
e 164 207
e 164 208
e 164 213
e 164 215
e 164 218
e 164 225
e 164 244
e 165 172
e 165 173
e 165 178
e 165 179
e 165 180
e 165 188
e 165 195
e 165 196
e 165 200
e 165 205
e 165 207
e 165 208
e 165 212
e 165 215
e 165 228
e 165 231
e 165 234
e 165 235
e 165 237
e 165 245
e 165 247
e 165 250
e 166 170
e 166 178
e 166 181
e 166 182
e 166 185
e 166 194
e 166 199
e 166 200
e 166 202
e 166 205
e 166 207
e 166 223
e 166 224
e 166 227
e 166 230
e 166 232
e 166 233
e 166 234
e 166 240
e 166 241
e 166 247
e 167 168
e 167 169
e 167 171
e 167 172
e 167 173
e 167 179
e 167 180
e 167 186
e 167 188
e 167 189
e 167 191
e 167 194
e 167 197
e 167 199
e 167 200
e 167 205
e 167 207
e 167 211
e 167 214
e 167 221
e 167 223
e 167 230
e 167 233
e 167 236
e 167 244
e 168 182
e 168 183
e 168 185
e 168 187
e 168 192
e 168 194
e 168 201
e 168 203
e 168 204
e 168 205
e 168 207
e 168 208
e 168 210
e 168 212
e 168 213
e 168 214
e 168 215
e 168 217
e 168 221
e 168 227
e 168 228
e 168 229
e 168 233
e 168 240
e 168 247
e 169 172
e 169 173
e 169 177
e 169 181
e 169 186
e 169 187
e 169 189
e 169 196
e 169 198
e 169 203
e 169 204
e 169 205
e 169 208
e 169 212
e 169 222
e 169 229
e 169 236
e 169 237
e 169 239
e 169 242
e 169 243
e 169 248
e 170 176
e 170 177
e 170 182
e 170 183
e 170 184
e 170 185
e 170 186
e 170 192
e 170 194
e 170 198
e 170 202
e 170 204
e 170 205
e 170 207
e 170 211
e 170 212
e 170 220
e 170 223
e 170 224
e 170 225
e 170 247
e 170 250
e 171 172
e 171 178
e 171 192
e 171 197
e 171 203
e 171 205
e 171 207
e 171 210
e 171 229
e 171 232
e 171 235
e 171 237
e 171 240
e 172 173
e 172 178
e 172 184
e 172 185
e 172 186
e 172 195
e 172 206
e 172 207
e 172 210
e 172 215
e 172 220
e 172 221
e 172 223
e 172 224
e 172 228
e 172 232
e 172 237
e 172 241
e 172 246
e 172 247
e 172 249
e 173 179
e 173 185
e 173 189
e 173 190
e 173 193
e 173 194
e 173 195
e 173 199
e 173 203
e 173 204
e 173 208
e 173 209
e 173 210
e 173 211
e 173 215
e 173 216
e 173 218
e 173 220
e 173 221
e 173 223
e 173 226
e 173 228
e 173 239
e 173 245
e 173 250
e 174 178
e 174 185
e 174 196
e 174 198
e 174 199
e 174 202
e 174 204
e 174 205
e 174 207
e 174 214
e 174 216
e 174 220
e 174 222
e 174 225
e 174 228
e 174 242
e 174 249
e 175 177
e 175 183
e 175 185
e 175 192
e 175 193
e 175 194
e 175 196
e 175 198
e 175 203
e 175 206
e 175 208
e 175 212
e 175 213
e 175 214
e 175 224
e 175 225
e 175 226
e 175 233
e 175 239
e 175 242
e 175 243
e 175 246
e 175 249
e 176 177
e 176 179
e 176 182
e 176 187
e 176 190
e 176 191
e 176 192
e 176 198
e 176 201
e 176 202
e 176 203
e 176 206
e 176 210
e 176 212
e 176 217
e 176 218
e 176 222
e 176 226
e 176 228
e 176 232
e 176 240
e 176 241
e 176 245
e 176 247
e 176 250
e 177 185
e 177 196
e 177 198
e 177 200
e 177 201
e 177 204
e 177 206
e 177 211
e 177 212
e 177 217
e 177 218
e 177 222
e 177 234
e 177 238
e 177 242
e 177 246
e 177 249
e 177 250
e 178 180
e 178 182
e 178 184
e 178 185
e 178 188
e 178 193
e 178 201
e 178 206
e 178 214
e 178 215
e 178 219
e 178 223
e 178 224
e 178 239
e 178 240
e 178 246
e 178 247
e 178 248
e 179 182
e 179 185
e 179 186
e 179 187
e 179 189
e 179 190
e 179 194
e 179 195
e 179 197
e 179 204
e 179 207
e 179 209
e 179 215
e 179 217
e 179 219
e 179 221
e 179 223
e 179 227
e 179 231
e 179 243
e 179 248
e 180 183
e 180 185
e 180 186
e 180 187
e 180 190
e 180 196
e 180 198
e 180 210
e 180 213
e 180 221
e 180 226
e 180 232
e 180 233
e 180 236
e 180 237
e 180 245
e 180 248
e 180 250
e 181 183
e 181 185
e 181 187
e 181 188
e 181 189
e 181 195
e 181 196
e 181 198
e 181 204
e 181 210
e 181 214
e 181 215
e 181 223
e 181 226
e 181 228
e 181 231
e 181 239
e 181 246
e 182 183
e 182 187
e 182 197
e 182 199
e 182 204
e 182 213
e 182 218
e 182 220
e 182 226
e 182 232
e 182 237
e 182 242
e 182 244
e 182 245
e 182 247
e 183 185
e 183 186
e 183 188
e 183 191
e 183 192
e 183 200
e 183 205
e 183 208
e 183 216
e 183 217
e 183 224
e 183 225
e 183 231
e 183 232
e 183 235
e 183 236
e 183 239
e 183 241
e 183 249
e 184 185
e 184 187
e 184 193
e 184 195
e 184 196
e 184 202
e 184 203
e 184 204
e 184 211
e 184 222
e 184 223
e 184 229
e 184 231
e 184 235
e 184 243
e 184 248
e 184 250
e 185 186
e 185 191
e 185 201
e 185 205
e 185 207
e 185 215
e 185 217
e 185 221
e 185 223
e 185 224
e 185 230
e 185 231
e 185 244
e 185 245
e 185 248
e 185 249
e 185 250
e 186 188
e 186 189
e 186 195
e 186 197
e 186 200
e 186 201
e 186 204
e 186 206
e 186 209
e 186 211
e 186 213
e 186 215
e 186 216
e 186 221
e 186 224
e 186 225
e 186 227
e 186 232
e 186 234
e 186 240
e 186 245
e 186 247
e 186 249
e 186 250
e 187 189
e 187 190
e 187 192
e 187 200
e 187 201
e 187 204
e 187 205
e 187 206
e 187 214
e 187 219
e 187 221
e 187 223
e 187 224
e 187 225
e 187 236
e 187 237
e 187 241
e 187 249
e 188 197
e 188 204
e 188 214
e 188 217
e 188 218
e 188 222
e 188 224
e 188 228
e 188 232
e 188 235
e 188 236
e 188 237
e 188 238
e 188 242
e 188 247
e 188 249
e 188 250
e 189 191
e 189 197
e 189 198
e 189 199
e 189 200
e 189 205
e 189 210
e 189 218
e 189 219
e 189 221
e 189 227
e 189 229
e 189 232
e 189 233
e 189 235
e 189 237
e 189 239
e 189 241
e 189 242
e 189 244
e 189 248
e 190 191
e 190 192
e 190 201
e 190 203
e 190 205
e 190 207
e 190 209
e 190 211
e 190 212
e 190 214
e 190 215
e 190 221
e 190 225
e 190 227
e 190 228
e 190 230
e 190 233
e 190 234
e 190 235
e 190 236
e 190 240
e 190 243
e 190 245
e 190 246
e 190 248
e 190 250
e 191 201
e 191 203
e 191 205
e 191 207
e 191 216
e 191 217
e 191 226
e 191 232
e 191 233
e 191 234
e 191 235
e 191 241
e 191 243
e 191 246
e 191 249
e 192 195
e 192 196
e 192 199
e 192 200
e 192 201
e 192 206
e 192 210
e 192 211
e 192 215
e 192 224
e 192 225
e 192 227
e 192 228
e 192 229
e 192 233
e 192 234
e 192 235
e 192 238
e 192 239
e 192 248
e 193 198
e 193 199
e 193 202
e 193 215
e 193 220
e 193 221
e 193 223
e 193 236
e 193 238
e 193 239
e 193 242
e 193 246
e 194 195
e 194 198
e 194 205
e 194 213
e 194 218
e 194 223
e 194 224
e 194 225
e 194 226
e 194 229
e 194 238
e 194 240
e 194 241
e 195 196
e 195 197
e 195 199
e 195 201
e 195 204
e 195 205
e 195 206
e 195 208
e 195 211
e 195 214
e 195 216
e 195 218
e 195 219
e 195 222
e 195 226
e 195 229
e 195 236
e 195 239
e 195 241
e 195 242
e 195 245
e 195 249
e 196 201
e 196 202
e 196 203
e 196 204
e 196 207
e 196 208
e 196 209
e 196 216
e 196 217
e 196 218
e 196 220
e 196 222
e 196 224
e 196 225
e 196 229
e 196 230
e 196 235
e 196 243
e 196 244
e 196 245
e 197 198
e 197 203
e 197 204
e 197 205
e 197 209
e 197 212
e 197 214
e 197 216
e 197 222
e 197 224
e 197 226
e 197 231
e 197 234
e 197 235
e 197 241
e 197 245
e 197 246
e 197 248
e 198 201
e 198 206
e 198 207
e 198 210
e 198 214
e 198 215
e 198 216
e 198 220
e 198 222
e 198 224
e 198 226
e 198 234
e 198 240
e 198 242
e 198 248
e 199 200
e 199 201
e 199 204
e 199 206
e 199 207
e 199 209
e 199 210
e 199 215
e 199 219
e 199 222
e 199 231
e 199 238
e 199 241
e 199 248
e 199 249
e 200 208
e 200 216
e 200 217
e 200 220
e 200 222
e 200 224
e 200 227
e 200 228
e 200 229
e 200 236
e 200 239
e 200 240
e 200 241
e 200 242
e 200 244
e 200 245
e 200 248
e 200 249
e 201 204
e 201 208
e 201 211
e 201 214
e 201 218
e 201 219
e 201 222
e 201 223
e 201 230
e 201 233
e 201 235
e 201 238
e 201 239
e 201 240
e 201 242
e 201 246
e 201 247
e 201 248
e 201 250
e 202 204
e 202 207
e 202 208
e 202 214
e 202 219
e 202 222
e 202 225
e 202 226
e 202 227
e 202 229
e 202 233
e 202 235
e 202 236
e 202 239
e 202 245
e 202 249
e 203 204
e 203 209
e 203 215
e 203 216
e 203 217
e 203 221
e 203 223
e 203 231
e 203 235
e 203 240
e 203 241
e 203 243
e 203 248
e 204 208
e 204 209
e 204 216
e 204 217
e 204 226
e 204 228
e 204 229
e 204 231
e 204 236
e 204 239
e 204 242
e 204 245
e 204 250
e 205 207
e 205 213
e 205 218
e 205 222
e 205 232
e 205 233
e 205 244
e 205 247
e 205 249
e 206 214
e 206 215
e 206 217
e 206 222
e 206 225
e 206 226
e 206 233
e 206 236
e 206 237
e 206 241
e 206 242
e 206 245
e 206 247
e 206 250
e 207 211
e 207 213
e 207 215
e 207 217
e 207 228
e 207 231
e 207 233
e 207 238
e 207 243
e 207 245
e 207 248
e 207 249
e 207 250
e 208 215
e 208 218
e 208 224
e 208 225
e 208 236
e 208 239
e 208 240
e 208 241
e 208 242
e 208 244
e 208 247
e 208 248
e 209 211
e 209 219
e 209 220
e 209 232
e 209 234
e 209 236
e 209 237
e 209 238
e 209 250
e 210 212
e 210 215
e 210 217
e 210 224
e 210 227
e 210 230
e 210 233
e 210 234
e 210 239
e 210 240
e 210 242
e 210 243
e 210 245
e 210 246
e 210 248
e 211 222
e 211 226
e 211 229
e 211 236
e 211 237
e 211 238
e 211 245
e 211 247
e 212 216
e 212 222
e 212 229
e 212 231
e 212 234
e 212 240
e 212 242
e 212 244
e 212 250
e 213 221
e 213 225
e 213 227
e 213 233
e 213 235
e 213 239
e 213 241
e 213 242
e 213 243
e 213 247
e 214 218
e 214 220
e 214 224
e 214 233
e 214 234
e 214 236
e 214 248
e 214 250
e 215 217
e 215 219
e 215 220
e 215 221
e 215 223
e 215 225
e 215 227
e 215 234
e 215 241
e 215 243
e 215 247
e 215 248
e 215 249
e 216 221
e 216 224
e 216 228
e 216 232
e 216 233
e 216 234
e 216 236
e 216 238
e 216 241
e 216 247
e 217 218
e 217 221
e 217 224
e 217 228
e 217 232
e 217 235
e 217 237
e 217 240
e 217 242
e 217 246
e 217 247
e 217 248
e 217 249
e 218 220
e 218 222
e 218 224
e 218 225
e 218 228
e 218 230
e 218 231
e 218 234
e 218 235
e 218 237
e 218 246
e 218 248
e 219 221
e 219 226
e 219 229
e 219 236
e 219 237
e 219 238
e 219 241
e 219 247
e 220 223
e 220 225
e 220 227
e 220 230
e 220 232
e 220 233
e 220 235
e 220 238
e 220 249
e 220 250
e 221 222
e 221 223
e 221 224
e 221 226
e 221 227
e 221 228
e 221 229
e 221 232
e 221 233
e 221 235
e 221 236
e 221 238
e 221 239
e 221 246
e 222 228
e 222 234
e 222 236
e 222 239
e 222 242
e 223 226
e 223 228
e 223 231
e 223 232
e 223 235
e 223 240
e 223 242
e 224 225
e 224 227
e 224 228
e 224 234
e 224 235
e 224 236
e 224 240
e 224 241
e 224 242
e 224 243
e 224 244
e 224 246
e 224 249
e 224 250
e 225 227
e 225 231
e 225 233
e 225 235
e 225 236
e 225 241
e 225 242
e 225 243
e 225 248
e 225 250
e 226 232
e 226 233
e 226 234
e 226 235
e 226 237
e 226 243
e 226 245
e 226 246
e 226 249
e 226 250
e 227 228
e 227 229
e 227 230
e 227 231
e 227 233
e 227 239
e 227 242
e 227 243
e 227 245
e 227 247
e 227 249
e 228 232
e 228 239
e 228 240
e 228 243
e 228 244
e 229 232
e 229 238
e 229 240
e 229 243
e 229 247
e 229 249
e 230 231
e 230 236
e 230 238
e 230 239
e 230 242
e 230 243
e 230 246
e 230 248
e 230 250
e 231 248
e 232 233
e 232 234
e 232 235
e 232 237
e 232 239
e 232 240
e 232 242
e 232 244
e 232 247
e 232 249
e 233 234
e 233 235
e 233 236
e 233 237
e 233 238
e 233 242
e 233 243
e 233 244
e 233 247
e 233 248
e 233 250
e 234 235
e 234 236
e 234 238
e 234 244
e 234 245
e 234 246
e 234 249
e 235 246
e 235 247
e 235 250
e 236 237
e 236 239
e 236 240
e 236 242
e 237 239
e 237 241
e 237 245
e 237 249
e 237 250
e 238 239
e 238 240
e 238 242
e 238 247
e 238 249
e 238 250
e 239 244
e 239 247
e 239 249
e 240 244
e 240 245
e 240 246
e 240 247
e 240 248
e 242 244
e 242 246
e 242 248
e 242 249
e 243 244
e 243 247
e 243 249
e 244 246
e 244 249
e 245 246
e 245 247
e 245 249
e 245 250
e 246 247
e 247 248
