c Converted from gc_20_5
c Source format: '<vertices> <edges>' header followed by integer edge pairs
p edge 20 95
e 1 4
e 1 7
e 1 8
e 1 9
e 1 12
e 1 13
e 1 14
e 1 15
e 1 20
e 2 6
e 2 7
e 2 10
e 2 11
e 2 14
e 2 16
e 2 17
e 2 20
e 3 6
e 3 7
e 3 9
e 3 11
e 3 14
e 3 15
e 3 16
e 3 17
e 3 18
e 3 19
e 4 9
e 4 10
e 4 12
e 4 13
e 4 14
e 4 16
e 4 18
e 4 20
e 5 6
e 5 7
e 5 8
e 5 13
e 5 15
e 5 16
e 5 17
e 5 18
e 5 20
e 6 7
e 6 8
e 6 10
e 6 12
e 6 13
e 6 17
e 6 20
e 7 9
e 7 10
e 7 12
e 7 13
e 7 14
e 7 15
e 7 16
e 7 19
e 8 10
e 8 13
e 8 17
e 8 18
e 8 20
e 9 10
e 9 15
e 9 16
e 9 17
e 9 19
e 10 14
e 10 17
e 10 18
e 10 19
e 11 12
e 11 15
e 11 17
e 11 19
e 12 14
e 12 19
e 13 14
e 13 16
e 13 18
e 13 19
e 14 16
e 14 17
e 14 18
e 14 19
e 14 20
e 15 19
e 15 20
e 16 17
e 16 18
e 17 20
e 18 19
e 18 20
