c Converted from gc_250_1
c Source format: '<vertices> <edges>' header followed by integer edge pairs
p edge 250 3024
e 1 7
e 1 12
e 1 14
e 1 23
e 1 26
e 1 43
e 1 58
e 1 66
e 1 82
e 1 93
e 1 94
e 1 103
e 1 104
e 1 112
e 1 115
e 1 123
e 1 124
e 1 131
e 1 132
e 1 138
e 1 143
e 1 146
e 1 150
e 1 172
e 1 186
e 1 190
e 1 192
e 1 199
e 1 207
e 1 217
e 1 227
e 1 232
e 1 239
e 1 247
e 2 6
e 2 21
e 2 55
e 2 56
e 2 61
e 2 69
e 2 80
e 2 90
e 2 91
e 2 98
e 2 100
e 2 115
e 2 122
e 2 123
e 2 154
e 2 165
e 2 168
e 2 172
e 2 193
e 2 206
e 2 223
e 2 233
e 2 234
e 2 241
e 2 248
e 2 250
e 3 4
e 3 6
e 3 8
e 3 17
e 3 23
e 3 34
e 3 45
e 3 46
e 3 53
e 3 59
e 3 100
e 3 105
e 3 107
e 3 114
e 3 118
e 3 125
e 3 134
e 3 136
e 3 139
e 3 142
e 3 144
e 3 156
e 3 168
e 3 176
e 3 195
e 3 203
e 3 217
e 3 218
e 3 229
e 3 230
e 3 238
e 4 13
e 4 19
e 4 28
e 4 78
e 4 79
e 4 86
e 4 118
e 4 123
e 4 124
e 4 127
e 4 137
e 4 163
e 4 167
e 4 182
e 4 197
e 4 235
e 4 240
e 4 246
e 5 11
e 5 16
e 5 20
e 5 23
e 5 35
e 5 41
e 5 44
e 5 47
e 5 49
e 5 50
e 5 54
e 5 57
e 5 61
e 5 62
e 5 80
e 5 89
e 5 148
e 5 171
e 5 190
e 5 195
e 5 199
e 5 233
e 5 240
e 5 249
e 6 7
e 6 11
e 6 18
e 6 29
e 6 41
e 6 56
e 6 60
e 6 65
e 6 66
e 6 72
e 6 79
e 6 91
e 6 99
e 6 114
e 6 115
e 6 118
e 6 121
e 6 173
e 6 174
e 6 180
e 6 187
e 6 192
e 6 195
e 6 204
e 6 211
e 6 232
e 6 234
e 6 249
e 6 250
e 7 10
e 7 14
e 7 16
e 7 56
e 7 60
e 7 85
e 7 90
e 7 101
e 7 102
e 7 114
e 7 117
e 7 136
e 7 138
e 7 156
e 7 158
e 7 191
e 7 196
e 7 216
e 7 231
e 7 240
e 7 245
e 8 13
e 8 15
e 8 20
e 8 26
e 8 31
e 8 39
e 8 45
e 8 55
e 8 59
e 8 61
e 8 73
e 8 76
e 8 119
e 8 126
e 8 156
e 8 163
e 8 164
e 8 201
e 8 219
e 8 220
e 8 230
e 8 231
e 8 238
e 8 245
e 9 21
e 9 34
e 9 42
e 9 67
e 9 72
e 9 118
e 9 124
e 9 127
e 9 129
e 9 146
e 9 158
e 9 168
e 9 175
e 9 176
e 9 181
e 9 184
e 9 188
e 9 194
e 9 195
e 9 228
e 9 232
e 9 233
e 9 236
e 9 238
e 9 244
e 10 37
e 10 45
e 10 55
e 10 76
e 10 90
e 10 92
e 10 97
e 10 101
e 10 108
e 10 116
e 10 122
e 10 137
e 10 202
e 10 209
e 10 215
e 10 224
e 11 14
e 11 23
e 11 35
e 11 38
e 11 60
e 11 61
e 11 72
e 11 74
e 11 110
e 11 124
e 11 129
e 11 153
e 11 178
e 11 199
e 11 201
e 11 206
e 11 210
e 11 223
e 11 237
e 11 242
e 11 248
e 12 16
e 12 18
e 12 48
e 12 66
e 12 71
e 12 74
e 12 93
e 12 97
e 12 100
e 12 121
e 12 127
e 12 148
e 12 158
e 12 159
e 12 165
e 12 174
e 12 176
e 12 183
e 12 196
e 12 233
e 12 242
e 13 21
e 13 34
e 13 39
e 13 43
e 13 66
e 13 69
e 13 74
e 13 75
e 13 90
e 13 91
e 13 95
e 13 97
e 13 111
e 13 116
e 13 118
e 13 128
e 13 132
e 13 135
e 13 151
e 13 161
e 13 177
e 13 194
e 13 202
e 13 214
e 13 216
e 13 218
e 13 241
e 13 245
e 13 249
e 13 250
e 14 19
e 14 54
e 14 81
e 14 102
e 14 143
e 14 148
e 14 160
e 14 161
e 14 164
e 14 170
e 14 171
e 14 178
e 14 183
e 14 196
e 14 198
e 14 212
e 14 213
e 14 214
e 14 222
e 14 226
e 14 227
e 14 243
e 15 35
e 15 38
e 15 66
e 15 95
e 15 137
e 15 139
e 15 153
e 15 156
e 15 157
e 15 162
e 15 167
e 15 172
e 15 187
e 15 194
e 15 220
e 15 231
e 15 241
e 15 250
e 16 29
e 16 43
e 16 50
e 16 51
e 16 57
e 16 75
e 16 81
e 16 84
e 16 102
e 16 110
e 16 114
e 16 124
e 16 125
e 16 137
e 16 139
e 16 141
e 16 142
e 16 149
e 16 150
e 16 184
e 16 189
e 16 195
e 16 201
e 16 246
e 17 18
e 17 39
e 17 56
e 17 58
e 17 64
e 17 65
e 17 70
e 17 74
e 17 105
e 17 109
e 17 125
e 17 129
e 17 130
e 17 139
e 17 141
e 17 146
e 17 157
e 17 169
e 17 172
e 17 176
e 17 184
e 17 204
e 17 217
e 17 229
e 17 238
e 17 240
e 18 23
e 18 34
e 18 41
e 18 50
e 18 89
e 18 107
e 18 108
e 18 123
e 18 140
e 18 154
e 18 175
e 18 211
e 18 216
e 19 27
e 19 33
e 19 41
e 19 50
e 19 55
e 19 59
e 19 66
e 19 73
e 19 75
e 19 90
e 19 97
e 19 110
e 19 114
e 19 123
e 19 140
e 19 146
e 19 167
e 19 169
e 19 190
e 19 195
e 19 198
e 19 211
e 19 223
e 19 226
e 19 237
e 19 239
e 20 39
e 20 42
e 20 48
e 20 59
e 20 72
e 20 77
e 20 99
e 20 116
e 20 136
e 20 137
e 20 146
e 20 157
e 20 163
e 20 169
e 20 175
e 20 178
e 20 181
e 20 201
e 20 204
e 20 205
e 20 212
e 21 22
e 21 35
e 21 55
e 21 63
e 21 73
e 21 87
e 21 88
e 21 89
e 21 101
e 21 102
e 21 107
e 21 170
e 21 205
e 21 213
e 21 225
e 22 34
e 22 35
e 22 44
e 22 50
e 22 54
e 22 56
e 22 61
e 22 62
e 22 66
e 22 69
e 22 73
e 22 94
e 22 98
e 22 104
e 22 108
e 22 116
e 22 125
e 22 144
e 22 147
e 22 152
e 22 199
e 22 207
e 22 209
e 22 215
e 22 220
e 22 235
e 22 238
e 22 245
e 23 33
e 23 36
e 23 37
e 23 51
e 23 54
e 23 57
e 23 88
e 23 90
e 23 103
e 23 107
e 23 122
e 23 138
e 23 147
e 23 153
e 23 182
e 23 197
e 23 198
e 23 205
e 23 216
e 23 219
e 23 225
e 23 232
e 24 31
e 24 45
e 24 55
e 24 65
e 24 76
e 24 89
e 24 108
e 24 116
e 24 118
e 24 121
e 24 134
e 24 139
e 24 160
e 24 167
e 24 171
e 24 173
e 24 174
e 24 177
e 24 187
e 24 214
e 24 219
e 24 232
e 24 236
e 24 238
e 24 244
e 24 247
e 25 31
e 25 46
e 25 55
e 25 56
e 25 63
e 25 85
e 25 104
e 25 112
e 25 118
e 25 145
e 25 147
e 25 150
e 25 169
e 25 174
e 25 186
e 25 187
e 25 198
e 25 222
e 25 232
e 25 247
e 26 30
e 26 75
e 26 83
e 26 99
e 26 105
e 26 113
e 26 116
e 26 117
e 26 122
e 26 141
e 26 142
e 26 145
e 26 161
e 26 164
e 26 170
e 26 173
e 26 179
e 26 182
e 26 193
e 26 195
e 26 196
e 26 201
e 26 213
e 26 241
e 26 242
e 26 249
e 27 39
e 27 41
e 27 89
e 27 92
e 27 98
e 27 103
e 27 119
e 27 122
e 27 139
e 27 145
e 27 148
e 27 157
e 27 158
e 27 168
e 27 169
e 27 187
e 27 221
e 27 239
e 27 241
e 27 249
e 28 31
e 28 98
e 28 101
e 28 118
e 28 119
e 28 123
e 28 128
e 28 145
e 28 180
e 28 190
e 28 191
e 28 210
e 28 211
e 28 217
e 28 228
e 28 232
e 28 242
e 28 247
e 29 68
e 29 86
e 29 97
e 29 100
e 29 121
e 29 125
e 29 153
e 29 157
e 29 158
e 29 161
e 29 188
e 29 189
e 29 190
e 29 194
e 29 196
e 29 199
e 29 201
e 29 207
e 29 208
e 29 211
e 29 217
e 29 218
e 29 237
e 29 248
e 30 32
e 30 58
e 30 73
e 30 87
e 30 90
e 30 97
e 30 98
e 30 103
e 30 105
e 30 108
e 30 115
e 30 118
e 30 120
e 30 142
e 30 179
e 30 182
e 30 207
e 30 208
e 30 223
e 30 231
e 31 36
e 31 60
e 31 76
e 31 84
e 31 120
e 31 126
e 31 133
e 31 136
e 31 159
e 31 173
e 31 176
e 31 196
e 31 234
e 32 48
e 32 51
e 32 70
e 32 76
e 32 84
e 32 121
e 32 140
e 32 154
e 32 158
e 32 162
e 32 193
e 32 194
e 32 200
e 32 213
e 32 216
e 32 222
e 32 236
e 32 246
e 33 37
e 33 40
e 33 41
e 33 59
e 33 63
e 33 69
e 33 85
e 33 96
e 33 105
e 33 116
e 33 140
e 33 156
e 33 190
e 33 231
e 33 233
e 33 241
e 33 249
e 34 36
e 34 52
e 34 60
e 34 71
e 34 80
e 34 81
e 34 84
e 34 89
e 34 97
e 34 115
e 34 118
e 34 120
e 34 126
e 34 130
e 34 131
e 34 138
e 34 146
e 34 161
e 34 165
e 34 179
e 34 209
e 34 210
e 34 211
e 34 225
e 35 52
e 35 57
e 35 58
e 35 74
e 35 100
e 35 115
e 35 142
e 35 143
e 35 146
e 35 147
e 35 151
e 35 161
e 35 172
e 35 185
e 35 189
e 35 193
e 35 194
e 35 198
e 35 200
e 35 201
e 35 208
e 35 215
e 35 220
e 35 232
e 35 242
e 35 245
e 36 43
e 36 50
e 36 53
e 36 54
e 36 55
e 36 61
e 36 67
e 36 78
e 36 115
e 36 123
e 36 133
e 36 141
e 36 146
e 36 155
e 36 165
e 36 175
e 36 196
e 36 208
e 36 229
e 37 44
e 37 48
e 37 67
e 37 82
e 37 93
e 37 96
e 37 101
e 37 116
e 37 117
e 37 120
e 37 134
e 37 143
e 37 147
e 37 150
e 37 152
e 37 162
e 37 166
e 37 177
e 37 178
e 37 186
e 37 195
e 37 198
e 37 205
e 37 220
e 37 228
e 37 244
e 37 246
e 38 44
e 38 53
e 38 54
e 38 56
e 38 62
e 38 68
e 38 71
e 38 89
e 38 106
e 38 116
e 38 143
e 38 152
e 38 153
e 38 169
e 38 171
e 38 185
e 38 195
e 38 200
e 38 231
e 38 242
e 38 246
e 38 248
e 39 55
e 39 58
e 39 59
e 39 63
e 39 64
e 39 82
e 39 85
e 39 102
e 39 104
e 39 111
e 39 118
e 39 146
e 39 158
e 39 166
e 39 176
e 39 201
e 39 207
e 39 247
e 39 250
e 40 58
e 40 90
e 40 99
e 40 107
e 40 118
e 40 119
e 40 120
e 40 147
e 40 148
e 40 160
e 40 166
e 40 185
e 40 188
e 40 195
e 40 211
e 40 225
e 40 230
e 40 237
e 40 241
e 41 61
e 41 70
e 41 79
e 41 84
e 41 90
e 41 100
e 41 108
e 41 114
e 41 115
e 41 138
e 41 151
e 41 162
e 41 187
e 41 194
e 41 201
e 41 225
e 41 242
e 42 74
e 42 87
e 42 107
e 42 149
e 42 161
e 42 195
e 42 200
e 42 201
e 42 202
e 42 216
e 42 222
e 42 223
e 42 231
e 42 238
e 42 241
e 42 248
e 42 249
e 43 53
e 43 57
e 43 61
e 43 62
e 43 69
e 43 78
e 43 80
e 43 106
e 43 114
e 43 127
e 43 133
e 43 170
e 43 172
e 43 190
e 43 198
e 43 200
e 43 203
e 43 205
e 43 209
e 43 211
e 43 215
e 43 216
e 43 218
e 43 234
e 43 236
e 43 248
e 44 52
e 44 60
e 44 64
e 44 68
e 44 82
e 44 84
e 44 103
e 44 147
e 44 159
e 44 178
e 44 184
e 44 202
e 44 222
e 44 224
e 44 234
e 44 242
e 44 247
e 44 249
e 45 56
e 45 61
e 45 62
e 45 72
e 45 82
e 45 85
e 45 89
e 45 106
e 45 109
e 45 122
e 45 182
e 45 194
e 45 204
e 45 211
e 45 214
e 45 217
e 45 238
e 46 49
e 46 54
e 46 56
e 46 78
e 46 80
e 46 93
e 46 99
e 46 101
e 46 105
e 46 113
e 46 120
e 46 129
e 46 134
e 46 135
e 46 137
e 46 151
e 46 160
e 46 173
e 46 174
e 46 181
e 46 189
e 46 191
e 46 198
e 46 225
e 46 237
e 46 241
e 47 54
e 47 80
e 47 84
e 47 90
e 47 99
e 47 104
e 47 126
e 47 129
e 47 134
e 47 136
e 47 149
e 47 153
e 47 158
e 47 169
e 47 178
e 47 193
e 47 199
e 47 204
e 47 208
e 47 212
e 48 61
e 48 62
e 48 66
e 48 127
e 48 130
e 48 139
e 48 140
e 48 143
e 48 149
e 48 166
e 48 171
e 48 182
e 48 188
e 48 192
e 48 212
e 48 229
e 48 247
e 48 248
e 49 58
e 49 67
e 49 94
e 49 97
e 49 108
e 49 133
e 49 187
e 49 193
e 49 202
e 49 214
e 49 228
e 49 239
e 49 246
e 50 51
e 50 55
e 50 62
e 50 104
e 50 105
e 50 116
e 50 135
e 50 155
e 50 159
e 50 179
e 50 181
e 50 183
e 50 188
e 50 212
e 50 219
e 50 242
e 50 250
e 51 52
e 51 80
e 51 85
e 51 94
e 51 95
e 51 120
e 51 121
e 51 123
e 51 148
e 51 162
e 51 175
e 51 204
e 51 214
e 51 218
e 51 237
e 51 241
e 51 247
e 52 66
e 52 69
e 52 72
e 52 73
e 52 76
e 52 83
e 52 89
e 52 94
e 52 98
e 52 113
e 52 136
e 52 160
e 52 176
e 52 202
e 52 207
e 52 213
e 52 232
e 52 241
e 52 243
e 53 56
e 53 57
e 53 59
e 53 63
e 53 77
e 53 84
e 53 96
e 53 112
e 53 116
e 53 150
e 53 160
e 53 164
e 53 166
e 53 186
e 53 191
e 53 197
e 53 211
e 53 215
e 53 227
e 53 237
e 53 242
e 54 66
e 54 74
e 54 79
e 54 108
e 54 125
e 54 129
e 54 137
e 54 142
e 54 170
e 54 180
e 54 182
e 54 198
e 54 201
e 54 214
e 55 68
e 55 85
e 55 96
e 55 112
e 55 118
e 55 121
e 55 125
e 55 140
e 55 143
e 55 152
e 55 164
e 55 178
e 55 180
e 55 192
e 55 197
e 55 234
e 56 62
e 56 78
e 56 85
e 56 114
e 56 146
e 56 157
e 56 167
e 56 203
e 56 204
e 56 206
e 56 227
e 57 59
e 57 60
e 57 68
e 57 79
e 57 82
e 57 95
e 57 106
e 57 109
e 57 112
e 57 116
e 57 133
e 57 134
e 57 143
e 57 144
e 57 161
e 57 171
e 57 209
e 57 210
e 57 220
e 57 225
e 57 228
e 57 235
e 57 250
e 58 67
e 58 83
e 58 88
e 58 91
e 58 99
e 58 109
e 58 113
e 58 117
e 58 125
e 58 130
e 58 155
e 58 163
e 58 168
e 58 187
e 58 193
e 58 207
e 58 209
e 58 230
e 58 237
e 58 238
e 58 239
e 58 240
e 59 66
e 59 71
e 59 87
e 59 93
e 59 98
e 59 118
e 59 120
e 59 123
e 59 130
e 59 136
e 59 171
e 59 174
e 59 209
e 59 215
e 59 221
e 59 233
e 60 64
e 60 73
e 60 83
e 60 89
e 60 103
e 60 114
e 60 117
e 60 119
e 60 123
e 60 144
e 60 146
e 60 162
e 60 165
e 60 168
e 60 171
e 60 172
e 60 190
e 60 206
e 60 239
e 60 244
e 61 62
e 61 78
e 61 91
e 61 92
e 61 101
e 61 104
e 61 105
e 61 107
e 61 111
e 61 122
e 61 134
e 61 140
e 61 161
e 61 176
e 61 207
e 61 218
e 61 219
e 61 240
e 61 243
e 61 244
e 61 245
e 62 73
e 62 74
e 62 99
e 62 111
e 62 120
e 62 123
e 62 131
e 62 139
e 62 149
e 62 159
e 62 172
e 62 181
e 62 195
e 62 206
e 62 208
e 62 209
e 62 218
e 62 231
e 62 234
e 62 241
e 63 71
e 63 91
e 63 93
e 63 115
e 63 122
e 63 131
e 63 142
e 63 148
e 63 151
e 63 152
e 63 154
e 63 156
e 63 166
e 63 169
e 63 178
e 63 187
e 63 195
e 63 209
e 63 210
e 63 223
e 63 245
e 64 79
e 64 84
e 64 88
e 64 101
e 64 110
e 64 113
e 64 115
e 64 121
e 64 132
e 64 141
e 64 161
e 64 197
e 64 208
e 64 220
e 64 241
e 64 247
e 65 82
e 65 96
e 65 97
e 65 106
e 65 126
e 65 134
e 65 136
e 65 162
e 65 170
e 65 182
e 65 199
e 65 233
e 65 242
e 65 244
e 66 72
e 66 77
e 66 78
e 66 88
e 66 90
e 66 102
e 66 107
e 66 110
e 66 111
e 66 125
e 66 132
e 66 148
e 66 166
e 66 168
e 66 171
e 66 181
e 66 196
e 66 221
e 66 222
e 66 227
e 66 238
e 66 240
e 67 72
e 67 79
e 67 80
e 67 83
e 67 101
e 67 103
e 67 104
e 67 107
e 67 117
e 67 144
e 67 145
e 67 163
e 67 181
e 67 188
e 67 193
e 67 206
e 67 231
e 67 235
e 67 243
e 68 88
e 68 98
e 68 102
e 68 105
e 68 120
e 68 158
e 68 182
e 68 186
e 68 206
e 68 222
e 68 223
e 68 240
e 68 245
e 69 71
e 69 72
e 69 87
e 69 88
e 69 99
e 69 123
e 69 137
e 69 141
e 69 142
e 69 145
e 69 152
e 69 154
e 69 168
e 69 182
e 69 187
e 69 189
e 69 203
e 69 214
e 69 218
e 69 230
e 69 232
e 69 235
e 69 237
e 69 242
e 69 243
e 70 74
e 70 79
e 70 80
e 70 83
e 70 89
e 70 100
e 70 125
e 70 127
e 70 135
e 70 178
e 70 196
e 70 202
e 70 208
e 70 216
e 70 242
e 71 73
e 71 75
e 71 81
e 71 93
e 71 95
e 71 97
e 71 110
e 71 117
e 71 121
e 71 150
e 71 153
e 71 161
e 71 199
e 71 206
e 71 234
e 71 236
e 71 244
e 72 77
e 72 84
e 72 85
e 72 103
e 72 134
e 72 138
e 72 139
e 72 166
e 72 179
e 72 180
e 72 182
e 72 197
e 72 199
e 72 207
e 72 211
e 72 214
e 72 219
e 72 225
e 73 79
e 73 100
e 73 107
e 73 133
e 73 139
e 73 147
e 73 151
e 73 163
e 73 167
e 73 170
e 73 171
e 73 190
e 73 207
e 73 217
e 73 236
e 73 238
e 73 243
e 74 77
e 74 83
e 74 86
e 74 91
e 74 98
e 74 107
e 74 135
e 74 143
e 74 147
e 74 149
e 74 155
e 74 168
e 74 176
e 74 177
e 74 189
e 74 194
e 74 203
e 74 214
e 74 233
e 74 234
e 74 235
e 74 247
e 74 248
e 75 99
e 75 147
e 75 148
e 75 150
e 75 166
e 75 179
e 75 182
e 75 190
e 75 201
e 75 207
e 75 231
e 75 238
e 76 85
e 76 89
e 76 95
e 76 98
e 76 102
e 76 108
e 76 109
e 76 145
e 76 167
e 76 182
e 76 191
e 76 192
e 76 194
e 76 203
e 76 235
e 76 248
e 77 93
e 77 94
e 77 103
e 77 110
e 77 143
e 77 169
e 77 171
e 77 175
e 77 230
e 77 232
e 78 91
e 78 102
e 78 105
e 78 110
e 78 111
e 78 113
e 78 126
e 78 139
e 78 143
e 78 145
e 78 187
e 78 188
e 78 195
e 78 202
e 78 204
e 78 214
e 78 222
e 78 242
e 78 243
e 78 250
e 79 88
e 79 93
e 79 109
e 79 123
e 79 128
e 79 132
e 79 134
e 79 140
e 79 172
e 79 174
e 79 183
e 79 212
e 79 217
e 79 228
e 80 95
e 80 117
e 80 150
e 80 163
e 80 169
e 80 187
e 80 193
e 80 205
e 80 206
e 80 213
e 80 215
e 80 227
e 80 228
e 80 238
e 80 249
e 81 84
e 81 90
e 81 94
e 81 110
e 81 131
e 81 133
e 81 138
e 81 152
e 81 164
e 81 166
e 81 171
e 81 176
e 81 200
e 81 208
e 81 214
e 81 221
e 81 225
e 81 235
e 82 92
e 82 116
e 82 156
e 82 166
e 82 184
e 82 187
e 82 198
e 82 200
e 82 207
e 82 208
e 82 213
e 82 215
e 82 217
e 82 224
e 82 233
e 83 107
e 83 145
e 83 148
e 83 168
e 83 175
e 83 184
e 83 195
e 83 211
e 83 248
e 84 103
e 84 107
e 84 149
e 84 161
e 84 176
e 84 177
e 84 183
e 84 197
e 84 208
e 84 223
e 84 227
e 84 236
e 84 238
e 84 239
e 84 245
e 84 247
e 85 89
e 85 98
e 85 110
e 85 116
e 85 122
e 85 161
e 85 162
e 85 171
e 85 186
e 85 240
e 85 243
e 86 89
e 86 97
e 86 104
e 86 106
e 86 107
e 86 112
e 86 113
e 86 119
e 86 123
e 86 131
e 86 146
e 86 164
e 86 166
e 86 174
e 86 184
e 86 185
e 86 193
e 86 195
e 86 209
e 86 224
e 86 228
e 86 240
e 86 244
e 87 92
e 87 100
e 87 127
e 87 133
e 87 136
e 87 141
e 87 142
e 87 150
e 87 153
e 87 161
e 87 164
e 87 178
e 87 179
e 87 185
e 87 189
e 87 195
e 87 197
e 87 199
e 87 207
e 87 224
e 87 227
e 87 236
e 87 239
e 87 245
e 88 93
e 88 108
e 88 128
e 88 132
e 88 138
e 88 154
e 88 157
e 88 168
e 88 171
e 88 198
e 88 206
e 88 216
e 88 217
e 88 227
e 88 234
e 89 92
e 89 124
e 89 126
e 89 143
e 89 174
e 89 181
e 89 186
e 89 193
e 89 196
e 89 218
e 89 230
e 89 241
e 89 242
e 89 250
e 90 102
e 90 106
e 90 109
e 90 119
e 90 128
e 90 147
e 90 156
e 90 174
e 90 177
e 90 194
e 90 199
e 90 221
e 90 233
e 90 234
e 90 238
e 90 240
e 90 250
e 91 98
e 91 106
e 91 107
e 91 112
e 91 113
e 91 122
e 91 123
e 91 125
e 91 126
e 91 128
e 91 137
e 91 166
e 91 167
e 91 173
e 91 187
e 91 194
e 91 200
e 91 202
e 91 207
e 91 210
e 91 214
e 91 218
e 91 220
e 91 234
e 91 238
e 91 249
e 92 100
e 92 102
e 92 110
e 92 112
e 92 134
e 92 140
e 92 146
e 92 155
e 92 165
e 92 172
e 92 173
e 92 191
e 92 195
e 92 196
e 92 198
e 92 211
e 92 214
e 92 235
e 92 236
e 93 128
e 93 131
e 93 152
e 93 153
e 93 161
e 93 169
e 93 174
e 93 184
e 93 190
e 93 195
e 93 196
e 93 200
e 93 210
e 93 221
e 93 224
e 93 247
e 93 250
e 94 112
e 94 132
e 94 144
e 94 146
e 94 150
e 94 168
e 94 176
e 94 189
e 94 210
e 94 214
e 94 233
e 94 250
e 95 101
e 95 109
e 95 129
e 95 134
e 95 135
e 95 160
e 95 195
e 95 197
e 95 230
e 96 98
e 96 101
e 96 110
e 96 112
e 96 120
e 96 125
e 96 128
e 96 130
e 96 132
e 96 135
e 96 142
e 96 147
e 96 161
e 96 172
e 96 179
e 96 180
e 96 181
e 96 202
e 96 209
e 96 216
e 96 218
e 97 103
e 97 122
e 97 141
e 97 167
e 97 177
e 97 184
e 97 190
e 97 205
e 97 216
e 97 224
e 97 238
e 97 243
e 98 107
e 98 108
e 98 112
e 98 120
e 98 127
e 98 140
e 98 144
e 98 147
e 98 148
e 98 152
e 98 160
e 98 230
e 98 249
e 98 250
e 99 115
e 99 130
e 99 139
e 99 147
e 99 159
e 99 171
e 99 179
e 99 197
e 99 200
e 99 207
e 99 209
e 99 211
e 99 238
e 100 106
e 100 122
e 100 129
e 100 130
e 100 147
e 100 151
e 100 152
e 100 218
e 100 222
e 100 246
e 101 113
e 101 115
e 101 127
e 101 128
e 101 129
e 101 135
e 101 137
e 101 140
e 101 149
e 101 171
e 101 176
e 101 192
e 101 201
e 101 216
e 101 221
e 101 225
e 101 231
e 101 232
e 102 121
e 102 132
e 102 135
e 102 154
e 102 162
e 102 170
e 102 172
e 102 190
e 102 217
e 102 240
e 102 243
e 103 109
e 103 111
e 103 138
e 103 146
e 103 176
e 103 178
e 103 188
e 103 193
e 103 197
e 103 198
e 103 222
e 103 227
e 103 229
e 103 234
e 103 237
e 103 238
e 104 122
e 104 126
e 104 130
e 104 159
e 104 201
e 104 205
e 104 221
e 104 232
e 104 250
e 105 138
e 105 141
e 105 144
e 105 162
e 105 169
e 105 189
e 105 190
e 105 199
e 105 216
e 105 219
e 105 222
e 105 231
e 105 238
e 105 241
e 105 242
e 106 108
e 106 114
e 106 129
e 106 154
e 106 157
e 106 175
e 106 184
e 106 226
e 107 108
e 107 111
e 107 116
e 107 118
e 107 122
e 107 123
e 107 125
e 107 160
e 107 175
e 107 188
e 107 191
e 107 192
e 107 195
e 107 223
e 107 237
e 107 242
e 107 244
e 108 127
e 108 142
e 108 146
e 108 150
e 108 153
e 108 185
e 108 196
e 108 198
e 108 201
e 108 205
e 108 211
e 108 221
e 108 228
e 108 240
e 108 248
e 109 151
e 109 155
e 109 158
e 109 172
e 109 175
e 109 178
e 109 179
e 109 182
e 109 198
e 109 222
e 109 224
e 109 244
e 109 247
e 110 114
e 110 131
e 110 133
e 110 144
e 110 149
e 110 150
e 110 170
e 110 193
e 110 218
e 110 225
e 110 229
e 110 234
e 111 126
e 111 136
e 111 157
e 111 163
e 111 169
e 111 208
e 111 220
e 111 225
e 111 231
e 111 238
e 111 248
e 112 126
e 112 133
e 112 142
e 112 156
e 112 160
e 112 163
e 112 190
e 112 192
e 112 211
e 112 217
e 112 229
e 113 123
e 113 130
e 113 136
e 113 140
e 113 149
e 113 150
e 113 155
e 113 166
e 113 180
e 113 183
e 113 188
e 113 227
e 113 228
e 113 239
e 113 243
e 113 250
e 114 129
e 114 133
e 114 170
e 114 192
e 114 196
e 114 213
e 114 221
e 114 228
e 114 231
e 114 240
e 114 243
e 115 123
e 115 130
e 115 131
e 115 135
e 115 136
e 115 143
e 115 146
e 115 150
e 115 156
e 115 168
e 115 217
e 115 220
e 115 226
e 115 232
e 115 245
e 115 249
e 116 117
e 116 129
e 116 139
e 116 141
e 116 153
e 116 155
e 116 162
e 116 165
e 116 167
e 116 173
e 116 182
e 116 183
e 116 216
e 116 219
e 116 225
e 116 228
e 116 236
e 117 134
e 117 135
e 117 137
e 117 198
e 117 205
e 117 206
e 117 213
e 117 216
e 117 223
e 117 232
e 117 235
e 117 247
e 117 248
e 118 121
e 118 136
e 118 144
e 118 145
e 118 149
e 118 153
e 118 169
e 118 185
e 118 189
e 118 190
e 118 195
e 118 201
e 118 208
e 118 228
e 118 230
e 119 125
e 119 138
e 119 147
e 119 150
e 119 171
e 119 176
e 119 204
e 119 212
e 119 249
e 120 127
e 120 146
e 120 153
e 120 162
e 120 180
e 120 188
e 120 203
e 120 208
e 120 216
e 120 235
e 120 244
e 120 247
e 121 128
e 121 139
e 121 181
e 121 199
e 121 203
e 121 212
e 121 213
e 121 222
e 121 234
e 122 143
e 122 157
e 122 159
e 122 172
e 122 186
e 122 187
e 122 207
e 122 218
e 122 230
e 122 237
e 122 244
e 122 247
e 122 250
e 123 129
e 123 132
e 123 133
e 123 136
e 123 142
e 123 148
e 123 149
e 123 154
e 123 158
e 123 169
e 123 194
e 123 223
e 123 241
e 123 245
e 123 249
e 124 130
e 124 151
e 124 183
e 124 184
e 124 201
e 124 213
e 124 217
e 124 234
e 124 245
e 125 129
e 125 137
e 125 156
e 125 179
e 125 181
e 125 187
e 125 196
e 125 206
e 125 217
e 125 234
e 125 247
e 125 248
e 126 135
e 126 148
e 126 157
e 126 179
e 126 217
e 126 235
e 127 129
e 127 130
e 127 132
e 127 144
e 127 176
e 127 182
e 127 185
e 127 191
e 127 198
e 127 202
e 127 204
e 127 216
e 127 225
e 127 226
e 127 235
e 127 248
e 127 250
e 128 145
e 128 161
e 128 177
e 128 179
e 128 183
e 128 189
e 128 193
e 128 233
e 128 237
e 128 243
e 128 245
e 128 250
e 129 135
e 129 144
e 129 149
e 129 162
e 129 163
e 129 168
e 129 179
e 129 188
e 129 192
e 129 199
e 129 211
e 129 213
e 129 222
e 129 248
e 130 137
e 130 149
e 130 155
e 130 160
e 130 171
e 130 174
e 130 177
e 130 187
e 130 190
e 130 203
e 130 212
e 130 222
e 130 223
e 130 239
e 131 132
e 131 134
e 131 144
e 131 156
e 131 170
e 131 187
e 131 193
e 131 196
e 131 197
e 131 200
e 131 223
e 131 224
e 131 234
e 131 248
e 132 138
e 132 144
e 132 152
e 132 155
e 132 165
e 132 217
e 132 219
e 132 227
e 132 230
e 132 242
e 132 247
e 133 139
e 133 146
e 133 163
e 133 167
e 133 172
e 133 175
e 133 178
e 133 183
e 133 188
e 133 190
e 133 192
e 133 203
e 133 207
e 133 212
e 133 221
e 133 223
e 133 227
e 133 238
e 134 142
e 134 171
e 134 179
e 134 189
e 134 193
e 134 199
e 134 208
e 134 213
e 134 233
e 134 242
e 134 244
e 134 248
e 134 250
e 135 163
e 135 166
e 135 177
e 135 183
e 135 191
e 135 192
e 135 207
e 135 227
e 135 228
e 135 244
e 136 170
e 136 186
e 136 191
e 136 225
e 136 240
e 136 241
e 137 142
e 137 144
e 137 146
e 137 175
e 137 179
e 137 180
e 137 189
e 137 201
e 137 202
e 137 217
e 137 241
e 138 145
e 138 153
e 138 156
e 138 172
e 138 179
e 138 180
e 138 183
e 138 187
e 138 188
e 138 196
e 138 200
e 138 219
e 138 229
e 138 232
e 139 140
e 139 141
e 139 144
e 139 151
e 139 168
e 139 173
e 139 178
e 139 180
e 139 181
e 139 189
e 139 190
e 139 195
e 139 204
e 139 216
e 139 223
e 139 225
e 139 226
e 139 231
e 139 244
e 140 148
e 140 149
e 140 150
e 140 161
e 140 170
e 140 186
e 140 190
e 140 211
e 140 220
e 140 221
e 140 222
e 140 230
e 140 234
e 140 243
e 141 155
e 141 168
e 141 170
e 141 181
e 141 191
e 141 196
e 141 205
e 141 215
e 141 226
e 141 236
e 142 183
e 142 189
e 142 221
e 142 227
e 142 228
e 142 238
e 142 241
e 142 245
e 143 147
e 143 150
e 143 158
e 143 160
e 143 167
e 143 182
e 143 193
e 143 196
e 143 211
e 143 220
e 143 227
e 143 230
e 143 231
e 143 241
e 143 245
e 144 199
e 144 205
e 144 209
e 144 227
e 144 241
e 144 247
e 144 248
e 145 148
e 145 166
e 145 168
e 145 176
e 145 185
e 145 201
e 145 208
e 145 222
e 145 223
e 145 226
e 146 172
e 146 174
e 146 176
e 146 179
e 146 206
e 146 242
e 147 151
e 147 153
e 147 174
e 147 181
e 147 188
e 147 195
e 147 213
e 147 229
e 147 233
e 147 239
e 147 242
e 147 248
e 148 149
e 148 154
e 148 156
e 148 172
e 148 175
e 148 180
e 148 184
e 148 204
e 148 221
e 148 225
e 148 226
e 148 233
e 148 234
e 148 242
e 148 245
e 149 159
e 149 160
e 149 163
e 149 184
e 149 185
e 149 201
e 149 208
e 149 210
e 149 212
e 149 227
e 149 247
e 150 161
e 150 189
e 150 198
e 150 203
e 150 205
e 150 214
e 150 224
e 150 230
e 150 234
e 150 242
e 150 248
e 150 249
e 151 174
e 151 184
e 151 199
e 151 204
e 151 206
e 151 213
e 151 220
e 151 229
e 151 235
e 151 240
e 151 241
e 151 243
e 151 244
e 152 174
e 152 192
e 152 193
e 152 196
e 152 201
e 152 205
e 152 208
e 152 211
e 152 216
e 152 217
e 152 218
e 152 221
e 152 239
e 152 246
e 152 248
e 153 157
e 153 161
e 153 164
e 153 174
e 153 180
e 153 217
e 153 221
e 153 235
e 153 242
e 153 245
e 153 249
e 154 161
e 154 165
e 154 176
e 154 189
e 154 190
e 154 194
e 154 197
e 154 200
e 154 210
e 154 226
e 154 236
e 154 242
e 154 245
e 154 250
e 155 175
e 155 179
e 155 190
e 155 204
e 155 217
e 155 218
e 155 227
e 155 239
e 156 165
e 156 199
e 156 238
e 157 166
e 157 169
e 157 187
e 157 189
e 157 199
e 157 211
e 157 230
e 157 240
e 157 247
e 158 163
e 158 165
e 158 170
e 158 176
e 158 178
e 158 180
e 158 198
e 158 202
e 158 210
e 158 219
e 158 239
e 158 242
e 159 163
e 159 176
e 159 197
e 159 200
e 159 213
e 159 216
e 159 219
e 159 227
e 159 230
e 159 240
e 159 241
e 159 246
e 159 247
e 160 171
e 160 182
e 160 194
e 160 197
e 160 209
e 160 237
e 161 164
e 161 167
e 161 174
e 161 185
e 161 188
e 161 197
e 161 222
e 162 171
e 162 193
e 162 198
e 162 200
e 162 213
e 162 220
e 162 225
e 162 231
e 163 195
e 163 196
e 163 212
e 163 219
e 163 224
e 163 229
e 163 231
e 163 233
e 163 240
e 163 246
e 164 204
e 164 214
e 164 217
e 165 169
e 165 187
e 165 203
e 165 218
e 165 232
e 165 233
e 165 236
e 165 243
e 166 170
e 166 184
e 166 187
e 166 208
e 166 215
e 166 227
e 166 242
e 166 244
e 167 172
e 167 175
e 167 178
e 167 194
e 167 204
e 167 210
e 167 228
e 167 241
e 167 243
e 167 246
e 167 248
e 168 176
e 168 177
e 168 213
e 168 222
e 168 241
e 169 170
e 169 172
e 169 177
e 169 191
e 169 192
e 169 194
e 169 203
e 169 210
e 170 197
e 170 225
e 170 239
e 170 241
e 170 246
e 170 249
e 171 178
e 171 188
e 171 205
e 171 209
e 171 213
e 171 215
e 171 216
e 171 218
e 171 227
e 171 230
e 171 244
e 171 246
e 171 249
e 172 174
e 172 180
e 172 186
e 172 196
e 172 210
e 172 227
e 172 232
e 172 239
e 173 176
e 173 188
e 173 197
e 173 218
e 173 223
e 173 244
e 173 248
e 174 178
e 174 180
e 174 181
e 174 185
e 174 196
e 174 201
e 174 215
e 174 216
e 174 238
e 174 241
e 174 243
e 175 176
e 175 194
e 175 202
e 175 204
e 175 211
e 175 225
e 175 233
e 175 242
e 175 250
e 176 185
e 176 215
e 176 216
e 176 222
e 176 235
e 176 238
e 176 243
e 176 247
e 177 179
e 177 186
e 177 194
e 177 203
e 177 204
e 177 209
e 177 221
e 177 224
e 177 237
e 178 183
e 178 214
e 178 240
e 178 242
e 179 185
e 179 219
e 179 221
e 179 234
e 180 194
e 180 207
e 180 227
e 180 233
e 180 237
e 180 244
e 181 191
e 181 192
e 181 210
e 181 231
e 181 233
e 181 237
e 181 239
e 181 240
e 181 245
e 182 197
e 182 214
e 182 227
e 182 233
e 183 184
e 183 185
e 183 191
e 183 195
e 183 199
e 183 202
e 183 226
e 183 240
e 183 243
e 184 189
e 184 208
e 184 213
e 184 214
e 184 230
e 184 233
e 185 190
e 185 207
e 185 229
e 185 230
e 185 232
e 185 237
e 185 243
e 186 201
e 186 212
e 186 218
e 186 224
e 186 235
e 186 241
e 186 248
e 187 196
e 187 209
e 187 212
e 187 213
e 187 222
e 187 226
e 187 227
e 187 232
e 188 201
e 188 202
e 188 221
e 189 205
e 189 207
e 189 211
e 189 221
e 190 192
e 190 202
e 191 201
e 191 208
e 191 210
e 191 222
e 191 249
e 192 210
e 192 215
e 192 240
e 192 247
e 193 198
e 193 208
e 193 210
e 193 211
e 193 219
e 193 221
e 193 227
e 193 244
e 194 198
e 194 201
e 194 222
e 194 224
e 194 233
e 194 235
e 194 243
e 195 206
e 196 206
e 196 228
e 196 241
e 197 222
e 197 237
e 197 245
e 198 207
e 198 210
e 198 221
e 198 222
e 198 235
e 199 208
e 199 213
e 199 218
e 199 220
e 199 232
e 199 246
e 200 206
e 200 207
e 200 213
e 200 238
e 200 246
e 201 217
e 202 208
e 202 210
e 202 220
e 202 232
e 202 243
e 203 218
e 203 222
e 203 226
e 203 235
e 204 209
e 204 234
e 204 243
e 204 245
e 204 248
e 205 233
e 206 220
e 206 228
e 206 231
e 206 242
e 207 219
e 207 224
e 207 233
e 207 239
e 207 243
e 207 245
e 208 212
e 208 243
e 209 228
e 209 237
e 210 220
e 210 227
e 210 233
e 211 212
e 211 223
e 211 236
e 211 238
e 211 242
e 212 221
e 212 226
e 212 231
e 212 235
e 212 242
e 212 246
e 213 215
e 213 219
e 213 241
e 214 234
e 214 238
e 214 245
e 214 250
e 215 217
e 215 222
e 215 237
e 215 247
e 216 218
e 216 228
e 216 236
e 216 245
e 217 225
e 217 228
e 217 245
e 217 246
e 218 228
e 218 234
e 219 220
e 219 237
e 219 240
e 219 248
e 219 249
e 220 237
e 220 239
e 220 240
e 221 223
e 221 226
e 221 227
e 221 228
e 221 233
e 221 235
e 221 236
e 221 241
e 222 224
e 222 227
e 222 236
e 222 244
e 223 226
e 223 245
e 223 250
e 224 231
e 224 234
e 224 244
e 224 248
e 226 230
e 226 234
e 226 239
e 227 228
e 228 230
e 229 243
e 229 245
e 230 240
e 230 249
e 231 241
e 231 243
e 231 248
e 232 235
e 233 240
e 233 244
e 234 235
e 236 237
e 236 244
e 236 250
e 239 243
e 240 241
e 242 243
e 249 250
