c Converted from gc_250_5
c Source format: '<vertices> <edges>' header followed by integer edge pairs
p edge 250 15705
e 1 2
e 1 3
e 1 4
e 1 5
e 1 6
e 1 7
e 1 10
e 1 13
e 1 15
e 1 23
e 1 24
e 1 25
e 1 28
e 1 29
e 1 30
e 1 34
e 1 41
e 1 42
e 1 43
e 1 48
e 1 50
e 1 52
e 1 55
e 1 56
e 1 57
e 1 58
e 1 59
e 1 60
e 1 61
e 1 62
e 1 63
e 1 69
e 1 71
e 1 72
e 1 74
e 1 75
e 1 76
e 1 79
e 1 80
e 1 82
e 1 83
e 1 85
e 1 87
e 1 91
e 1 95
e 1 97
e 1 99
e 1 100
e 1 102
e 1 103
e 1 104
e 1 105
e 1 106
e 1 109
e 1 110
e 1 111
e 1 113
e 1 115
e 1 116
e 1 118
e 1 120
e 1 121
e 1 122
e 1 123
e 1 124
e 1 125
e 1 128
e 1 129
e 1 130
e 1 134
e 1 135
e 1 136
e 1 137
e 1 139
e 1 140
e 1 145
e 1 146
e 1 147
e 1 148
e 1 150
e 1 152
e 1 153
e 1 154
e 1 155
e 1 158
e 1 162
e 1 164
e 1 166
e 1 169
e 1 170
e 1 171
e 1 173
e 1 178
e 1 179
e 1 181
e 1 188
e 1 191
e 1 192
e 1 194
e 1 196
e 1 197
e 1 198
e 1 199
e 1 200
e 1 201
e 1 203
e 1 206
e 1 207
e 1 208
e 1 212
e 1 214
e 1 215
e 1 216
e 1 220
e 1 222
e 1 234
e 1 235
e 1 236
e 1 237
e 1 240
e 1 242
e 1 243
e 1 247
e 1 249
e 1 250
e 2 5
e 2 6
e 2 7
e 2 8
e 2 11
e 2 14
e 2 16
e 2 17
e 2 20
e 2 21
e 2 23
e 2 26
e 2 27
e 2 28
e 2 29
e 2 30
e 2 32
e 2 33
e 2 35
e 2 36
e 2 37
e 2 38
e 2 39
e 2 40
e 2 41
e 2 42
e 2 44
e 2 45
e 2 47
e 2 51
e 2 52
e 2 53
e 2 55
e 2 57
e 2 60
e 2 62
e 2 66
e 2 69
e 2 71
e 2 72
e 2 74
e 2 75
e 2 78
e 2 81
e 2 82
e 2 83
e 2 86
e 2 87
e 2 89
e 2 90
e 2 96
e 2 100
e 2 101
e 2 102
e 2 104
e 2 107
e 2 109
e 2 111
e 2 115
e 2 116
e 2 117
e 2 123
e 2 125
e 2 126
e 2 130
e 2 135
e 2 136
e 2 138
e 2 139
e 2 142
e 2 143
e 2 144
e 2 145
e 2 147
e 2 148
e 2 149
e 2 150
e 2 152
e 2 154
e 2 155
e 2 157
e 2 159
e 2 162
e 2 163
e 2 166
e 2 167
e 2 168
e 2 169
e 2 170
e 2 176
e 2 177
e 2 178
e 2 180
e 2 181
e 2 185
e 2 186
e 2 189
e 2 190
e 2 192
e 2 193
e 2 195
e 2 198
e 2 201
e 2 202
e 2 203
e 2 204
e 2 207
e 2 209
e 2 210
e 2 211
e 2 213
e 2 216
e 2 217
e 2 218
e 2 220
e 2 223
e 2 224
e 2 228
e 2 230
e 2 231
e 2 232
e 2 233
e 2 237
e 2 239
e 2 241
e 2 242
e 2 243
e 2 244
e 2 247
e 3 4
e 3 6
e 3 10
e 3 12
e 3 13
e 3 14
e 3 18
e 3 19
e 3 21
e 3 24
e 3 25
e 3 28
e 3 29
e 3 30
e 3 31
e 3 33
e 3 34
e 3 38
e 3 40
e 3 45
e 3 47
e 3 49
e 3 50
e 3 52
e 3 55
e 3 57
e 3 62
e 3 63
e 3 66
e 3 67
e 3 69
e 3 70
e 3 71
e 3 73
e 3 74
e 3 75
e 3 78
e 3 79
e 3 80
e 3 81
e 3 82
e 3 83
e 3 84
e 3 85
e 3 87
e 3 92
e 3 99
e 3 102
e 3 103
e 3 104
e 3 105
e 3 106
e 3 111
e 3 112
e 3 113
e 3 114
e 3 115
e 3 118
e 3 119
e 3 122
e 3 123
e 3 124
e 3 127
e 3 128
e 3 129
e 3 130
e 3 131
e 3 136
e 3 138
e 3 139
e 3 142
e 3 143
e 3 144
e 3 145
e 3 149
e 3 150
e 3 151
e 3 152
e 3 153
e 3 155
e 3 158
e 3 159
e 3 161
e 3 163
e 3 164
e 3 165
e 3 166
e 3 167
e 3 169
e 3 170
e 3 173
e 3 174
e 3 175
e 3 176
e 3 178
e 3 180
e 3 181
e 3 182
e 3 183
e 3 184
e 3 185
e 3 192
e 3 193
e 3 196
e 3 197
e 3 198
e 3 199
e 3 200
e 3 201
e 3 205
e 3 206
e 3 209
e 3 214
e 3 215
e 3 217
e 3 218
e 3 221
e 3 223
e 3 225
e 3 226
e 3 228
e 3 229
e 3 232
e 3 233
e 3 234
e 3 239
e 3 240
e 3 242
e 3 244
e 3 246
e 3 247
e 3 248
e 3 249
e 4 6
e 4 7
e 4 8
e 4 16
e 4 22
e 4 23
e 4 25
e 4 26
e 4 28
e 4 30
e 4 31
e 4 32
e 4 33
e 4 34
e 4 35
e 4 37
e 4 39
e 4 41
e 4 47
e 4 50
e 4 54
e 4 57
e 4 60
e 4 62
e 4 63
e 4 65
e 4 68
e 4 69
e 4 70
e 4 71
e 4 72
e 4 74
e 4 78
e 4 79
e 4 80
e 4 81
e 4 83
e 4 84
e 4 85
e 4 86
e 4 87
e 4 88
e 4 91
e 4 98
e 4 101
e 4 102
e 4 103
e 4 104
e 4 105
e 4 106
e 4 108
e 4 109
e 4 115
e 4 117
e 4 119
e 4 121
e 4 124
e 4 127
e 4 128
e 4 129
e 4 130
e 4 132
e 4 135
e 4 136
e 4 138
e 4 139
e 4 140
e 4 142
e 4 146
e 4 147
e 4 149
e 4 151
e 4 157
e 4 160
e 4 161
e 4 162
e 4 173
e 4 176
e 4 177
e 4 178
e 4 179
e 4 180
e 4 182
e 4 185
e 4 187
e 4 188
e 4 189
e 4 191
e 4 192
e 4 193
e 4 194
e 4 195
e 4 199
e 4 200
e 4 205
e 4 206
e 4 207
e 4 208
e 4 209
e 4 213
e 4 217
e 4 219
e 4 220
e 4 221
e 4 222
e 4 224
e 4 225
e 4 231
e 4 234
e 4 235
e 4 236
e 4 242
e 4 243
e 4 245
e 4 248
e 4 250
e 5 6
e 5 7
e 5 9
e 5 14
e 5 17
e 5 20
e 5 21
e 5 23
e 5 25
e 5 26
e 5 27
e 5 28
e 5 29
e 5 30
e 5 31
e 5 32
e 5 33
e 5 36
e 5 37
e 5 39
e 5 41
e 5 43
e 5 47
e 5 51
e 5 52
e 5 53
e 5 56
e 5 58
e 5 60
e 5 62
e 5 63
e 5 65
e 5 66
e 5 68
e 5 69
e 5 70
e 5 71
e 5 72
e 5 73
e 5 74
e 5 75
e 5 77
e 5 78
e 5 83
e 5 86
e 5 87
e 5 88
e 5 89
e 5 90
e 5 91
e 5 95
e 5 100
e 5 101
e 5 103
e 5 106
e 5 109
e 5 112
e 5 118
e 5 119
e 5 120
e 5 121
e 5 122
e 5 123
e 5 124
e 5 127
e 5 134
e 5 135
e 5 139
e 5 140
e 5 142
e 5 143
e 5 144
e 5 153
e 5 154
e 5 163
e 5 166
e 5 169
e 5 174
e 5 176
e 5 177
e 5 181
e 5 182
e 5 183
e 5 186
e 5 187
e 5 188
e 5 189
e 5 191
e 5 193
e 5 194
e 5 195
e 5 197
e 5 199
e 5 203
e 5 207
e 5 208
e 5 209
e 5 210
e 5 212
e 5 216
e 5 218
e 5 221
e 5 227
e 5 228
e 5 230
e 5 231
e 5 235
e 5 237
e 5 239
e 5 240
e 5 243
e 5 245
e 5 247
e 5 250
e 6 7
e 6 10
e 6 13
e 6 15
e 6 17
e 6 23
e 6 27
e 6 28
e 6 30
e 6 33
e 6 35
e 6 36
e 6 37
e 6 39
e 6 40
e 6 41
e 6 42
e 6 43
e 6 44
e 6 45
e 6 48
e 6 49
e 6 51
e 6 53
e 6 55
e 6 57
e 6 65
e 6 66
e 6 70
e 6 72
e 6 74
e 6 81
e 6 89
e 6 90
e 6 92
e 6 93
e 6 95
e 6 97
e 6 98
e 6 99
e 6 100
e 6 103
e 6 104
e 6 106
e 6 108
e 6 110
e 6 114
e 6 124
e 6 128
e 6 130
e 6 132
e 6 136
e 6 137
e 6 138
e 6 139
e 6 140
e 6 141
e 6 144
e 6 146
e 6 147
e 6 148
e 6 150
e 6 151
e 6 153
e 6 155
e 6 163
e 6 164
e 6 165
e 6 168
e 6 170
e 6 172
e 6 173
e 6 176
e 6 177
e 6 180
e 6 181
e 6 182
e 6 183
e 6 187
e 6 189
e 6 191
e 6 192
e 6 195
e 6 196
e 6 197
e 6 198
e 6 199
e 6 204
e 6 205
e 6 206
e 6 207
e 6 212
e 6 215
e 6 217
e 6 220
e 6 221
e 6 227
e 6 228
e 6 230
e 6 231
e 6 233
e 6 235
e 6 236
e 6 242
e 6 243
e 6 244
e 6 246
e 6 247
e 6 249
e 6 250
e 7 9
e 7 10
e 7 11
e 7 13
e 7 14
e 7 15
e 7 16
e 7 19
e 7 22
e 7 23
e 7 24
e 7 26
e 7 27
e 7 29
e 7 30
e 7 31
e 7 33
e 7 34
e 7 35
e 7 38
e 7 39
e 7 41
e 7 42
e 7 44
e 7 45
e 7 48
e 7 50
e 7 51
e 7 52
e 7 54
e 7 56
e 7 58
e 7 59
e 7 63
e 7 64
e 7 65
e 7 67
e 7 68
e 7 71
e 7 73
e 7 80
e 7 82
e 7 83
e 7 85
e 7 89
e 7 90
e 7 92
e 7 93
e 7 98
e 7 99
e 7 103
e 7 105
e 7 106
e 7 107
e 7 110
e 7 113
e 7 116
e 7 118
e 7 120
e 7 121
e 7 122
e 7 127
e 7 131
e 7 133
e 7 134
e 7 143
e 7 145
e 7 146
e 7 147
e 7 148
e 7 153
e 7 154
e 7 155
e 7 156
e 7 158
e 7 159
e 7 160
e 7 162
e 7 163
e 7 168
e 7 171
e 7 172
e 7 173
e 7 174
e 7 175
e 7 176
e 7 178
e 7 179
e 7 180
e 7 181
e 7 182
e 7 183
e 7 186
e 7 187
e 7 188
e 7 192
e 7 193
e 7 196
e 7 198
e 7 199
e 7 200
e 7 201
e 7 203
e 7 206
e 7 208
e 7 209
e 7 210
e 7 212
e 7 215
e 7 218
e 7 221
e 7 223
e 7 227
e 7 228
e 7 233
e 7 238
e 7 239
e 7 240
e 7 245
e 7 249
e 7 250
e 8 12
e 8 14
e 8 15
e 8 16
e 8 17
e 8 18
e 8 19
e 8 24
e 8 25
e 8 26
e 8 27
e 8 30
e 8 32
e 8 34
e 8 35
e 8 36
e 8 37
e 8 38
e 8 39
e 8 43
e 8 47
e 8 48
e 8 50
e 8 51
e 8 53
e 8 57
e 8 65
e 8 68
e 8 70
e 8 71
e 8 72
e 8 73
e 8 74
e 8 75
e 8 76
e 8 77
e 8 78
e 8 82
e 8 84
e 8 85
e 8 88
e 8 89
e 8 92
e 8 95
e 8 96
e 8 97
e 8 98
e 8 101
e 8 104
e 8 105
e 8 106
e 8 107
e 8 108
e 8 110
e 8 111
e 8 112
e 8 114
e 8 115
e 8 116
e 8 119
e 8 120
e 8 124
e 8 125
e 8 126
e 8 128
e 8 130
e 8 131
e 8 132
e 8 133
e 8 136
e 8 138
e 8 141
e 8 142
e 8 143
e 8 144
e 8 145
e 8 153
e 8 154
e 8 156
e 8 157
e 8 158
e 8 159
e 8 160
e 8 163
e 8 165
e 8 166
e 8 170
e 8 171
e 8 173
e 8 176
e 8 180
e 8 183
e 8 184
e 8 189
e 8 190
e 8 192
e 8 193
e 8 194
e 8 197
e 8 198
e 8 199
e 8 203
e 8 213
e 8 214
e 8 217
e 8 219
e 8 221
e 8 222
e 8 224
e 8 226
e 8 228
e 8 229
e 8 231
e 8 232
e 8 237
e 8 241
e 8 245
e 8 246
e 8 248
e 9 11
e 9 15
e 9 16
e 9 17
e 9 21
e 9 22
e 9 27
e 9 28
e 9 31
e 9 32
e 9 33
e 9 34
e 9 36
e 9 40
e 9 41
e 9 42
e 9 44
e 9 48
e 9 50
e 9 53
e 9 55
e 9 58
e 9 68
e 9 71
e 9 72
e 9 73
e 9 74
e 9 75
e 9 76
e 9 77
e 9 81
e 9 84
e 9 85
e 9 88
e 9 89
e 9 90
e 9 91
e 9 92
e 9 93
e 9 94
e 9 95
e 9 96
e 9 98
e 9 102
e 9 103
e 9 106
e 9 107
e 9 110
e 9 112
e 9 113
e 9 114
e 9 118
e 9 119
e 9 121
e 9 123
e 9 124
e 9 127
e 9 129
e 9 130
e 9 133
e 9 138
e 9 139
e 9 140
e 9 142
e 9 143
e 9 144
e 9 146
e 9 149
e 9 150
e 9 151
e 9 154
e 9 156
e 9 157
e 9 158
e 9 159
e 9 163
e 9 165
e 9 166
e 9 168
e 9 170
e 9 172
e 9 173
e 9 176
e 9 177
e 9 185
e 9 191
e 9 192
e 9 194
e 9 196
e 9 197
e 9 199
e 9 200
e 9 204
e 9 207
e 9 208
e 9 209
e 9 210
e 9 214
e 9 215
e 9 221
e 9 223
e 9 224
e 9 226
e 9 227
e 9 230
e 9 233
e 9 234
e 9 235
e 9 236
e 9 239
e 9 240
e 9 241
e 9 245
e 9 248
e 10 14
e 10 15
e 10 17
e 10 18
e 10 19
e 10 20
e 10 21
e 10 23
e 10 24
e 10 26
e 10 27
e 10 30
e 10 31
e 10 32
e 10 35
e 10 36
e 10 37
e 10 38
e 10 43
e 10 44
e 10 45
e 10 46
e 10 48
e 10 49
e 10 50
e 10 51
e 10 54
e 10 57
e 10 59
e 10 66
e 10 67
e 10 68
e 10 69
e 10 71
e 10 75
e 10 76
e 10 77
e 10 79
e 10 80
e 10 86
e 10 88
e 10 90
e 10 91
e 10 97
e 10 99
e 10 102
e 10 103
e 10 104
e 10 105
e 10 106
e 10 107
e 10 110
e 10 111
e 10 114
e 10 119
e 10 120
e 10 124
e 10 125
e 10 126
e 10 127
e 10 129
e 10 132
e 10 133
e 10 134
e 10 137
e 10 138
e 10 139
e 10 140
e 10 143
e 10 144
e 10 152
e 10 155
e 10 157
e 10 159
e 10 160
e 10 161
e 10 163
e 10 164
e 10 165
e 10 167
e 10 170
e 10 171
e 10 173
e 10 175
e 10 176
e 10 177
e 10 179
e 10 181
e 10 189
e 10 192
e 10 193
e 10 201
e 10 202
e 10 205
e 10 206
e 10 208
e 10 210
e 10 212
e 10 213
e 10 216
e 10 218
e 10 219
e 10 221
e 10 222
e 10 223
e 10 224
e 10 225
e 10 226
e 10 227
e 10 229
e 10 231
e 10 240
e 10 241
e 10 242
e 10 244
e 10 245
e 10 247
e 10 250
e 11 13
e 11 14
e 11 18
e 11 19
e 11 23
e 11 24
e 11 27
e 11 30
e 11 32
e 11 34
e 11 35
e 11 38
e 11 40
e 11 42
e 11 43
e 11 48
e 11 49
e 11 50
e 11 56
e 11 58
e 11 59
e 11 60
e 11 66
e 11 69
e 11 70
e 11 75
e 11 76
e 11 81
e 11 82
e 11 84
e 11 85
e 11 87
e 11 88
e 11 91
e 11 92
e 11 96
e 11 100
e 11 101
e 11 102
e 11 104
e 11 108
e 11 109
e 11 110
e 11 111
e 11 112
e 11 114
e 11 115
e 11 116
e 11 119
e 11 120
e 11 121
e 11 129
e 11 131
e 11 134
e 11 136
e 11 137
e 11 138
e 11 139
e 11 140
e 11 142
e 11 143
e 11 146
e 11 148
e 11 149
e 11 151
e 11 152
e 11 153
e 11 154
e 11 155
e 11 157
e 11 158
e 11 159
e 11 161
e 11 162
e 11 163
e 11 164
e 11 165
e 11 166
e 11 169
e 11 170
e 11 171
e 11 172
e 11 174
e 11 176
e 11 178
e 11 181
e 11 183
e 11 185
e 11 186
e 11 190
e 11 191
e 11 193
e 11 198
e 11 202
e 11 205
e 11 206
e 11 207
e 11 208
e 11 209
e 11 210
e 11 214
e 11 215
e 11 216
e 11 217
e 11 221
e 11 223
e 11 226
e 11 227
e 11 228
e 11 230
e 11 231
e 11 232
e 11 233
e 11 234
e 11 235
e 11 236
e 11 237
e 11 238
e 11 239
e 11 242
e 11 243
e 11 245
e 11 247
e 11 249
e 11 250
e 12 13
e 12 16
e 12 17
e 12 18
e 12 19
e 12 20
e 12 21
e 12 25
e 12 28
e 12 30
e 12 32
e 12 33
e 12 34
e 12 38
e 12 41
e 12 42
e 12 45
e 12 48
e 12 49
e 12 51
e 12 52
e 12 53
e 12 56
e 12 57
e 12 62
e 12 63
e 12 68
e 12 71
e 12 72
e 12 73
e 12 75
e 12 78
e 12 80
e 12 81
e 12 83
e 12 84
e 12 89
e 12 91
e 12 93
e 12 94
e 12 95
e 12 97
e 12 101
e 12 102
e 12 103
e 12 104
e 12 107
e 12 109
e 12 110
e 12 111
e 12 112
e 12 113
e 12 117
e 12 121
e 12 122
e 12 124
e 12 125
e 12 127
e 12 128
e 12 129
e 12 131
e 12 132
e 12 134
e 12 136
e 12 137
e 12 140
e 12 141
e 12 143
e 12 146
e 12 147
e 12 148
e 12 150
e 12 153
e 12 156
e 12 159
e 12 164
e 12 165
e 12 173
e 12 174
e 12 177
e 12 180
e 12 183
e 12 184
e 12 185
e 12 186
e 12 187
e 12 188
e 12 191
e 12 193
e 12 196
e 12 202
e 12 204
e 12 205
e 12 206
e 12 207
e 12 210
e 12 211
e 12 214
e 12 215
e 12 217
e 12 219
e 12 222
e 12 223
e 12 225
e 12 226
e 12 228
e 12 229
e 12 230
e 12 231
e 12 232
e 12 234
e 12 238
e 12 240
e 12 241
e 12 243
e 12 245
e 12 246
e 12 247
e 12 248
e 12 250
e 13 16
e 13 19
e 13 20
e 13 22
e 13 23
e 13 27
e 13 28
e 13 29
e 13 31
e 13 34
e 13 35
e 13 36
e 13 41
e 13 42
e 13 43
e 13 44
e 13 45
e 13 46
e 13 50
e 13 52
e 13 54
e 13 56
e 13 61
e 13 65
e 13 68
e 13 69
e 13 73
e 13 74
e 13 76
e 13 78
e 13 80
e 13 81
e 13 83
e 13 85
e 13 86
e 13 88
e 13 89
e 13 90
e 13 91
e 13 94
e 13 96
e 13 98
e 13 99
e 13 101
e 13 102
e 13 105
e 13 110
e 13 113
e 13 114
e 13 115
e 13 116
e 13 117
e 13 118
e 13 119
e 13 121
e 13 125
e 13 129
e 13 130
e 13 131
e 13 134
e 13 136
e 13 138
e 13 143
e 13 144
e 13 145
e 13 148
e 13 153
e 13 155
e 13 156
e 13 158
e 13 159
e 13 160
e 13 163
e 13 166
e 13 168
e 13 169
e 13 170
e 13 173
e 13 174
e 13 177
e 13 178
e 13 180
e 13 183
e 13 186
e 13 191
e 13 192
e 13 193
e 13 195
e 13 197
e 13 198
e 13 202
e 13 203
e 13 209
e 13 210
e 13 216
e 13 217
e 13 218
e 13 221
e 13 223
e 13 225
e 13 226
e 13 228
e 13 229
e 13 230
e 13 231
e 13 232
e 13 233
e 13 235
e 13 236
e 13 237
e 13 241
e 13 246
e 13 249
e 14 16
e 14 17
e 14 19
e 14 20
e 14 22
e 14 23
e 14 27
e 14 28
e 14 30
e 14 31
e 14 32
e 14 33
e 14 34
e 14 35
e 14 36
e 14 37
e 14 39
e 14 40
e 14 42
e 14 44
e 14 45
e 14 46
e 14 50
e 14 52
e 14 53
e 14 55
e 14 56
e 14 58
e 14 59
e 14 62
e 14 63
e 14 66
e 14 69
e 14 71
e 14 72
e 14 74
e 14 76
e 14 77
e 14 81
e 14 85
e 14 89
e 14 94
e 14 99
e 14 100
e 14 101
e 14 102
e 14 105
e 14 106
e 14 107
e 14 108
e 14 110
e 14 112
e 14 115
e 14 116
e 14 121
e 14 122
e 14 128
e 14 129
e 14 130
e 14 134
e 14 139
e 14 140
e 14 143
e 14 146
e 14 147
e 14 150
e 14 151
e 14 152
e 14 153
e 14 155
e 14 156
e 14 157
e 14 158
e 14 160
e 14 162
e 14 164
e 14 168
e 14 170
e 14 171
e 14 173
e 14 175
e 14 176
e 14 178
e 14 181
e 14 182
e 14 183
e 14 185
e 14 188
e 14 189
e 14 190
e 14 191
e 14 195
e 14 196
e 14 197
e 14 200
e 14 206
e 14 209
e 14 210
e 14 212
e 14 213
e 14 214
e 14 218
e 14 221
e 14 222
e 14 223
e 14 225
e 14 227
e 14 230
e 14 233
e 14 238
e 14 242
e 14 245
e 14 247
e 14 249
e 15 19
e 15 20
e 15 22
e 15 28
e 15 29
e 15 30
e 15 31
e 15 33
e 15 35
e 15 36
e 15 37
e 15 39
e 15 41
e 15 47
e 15 48
e 15 51
e 15 52
e 15 53
e 15 56
e 15 58
e 15 59
e 15 60
e 15 61
e 15 63
e 15 64
e 15 65
e 15 66
e 15 67
e 15 68
e 15 69
e 15 71
e 15 72
e 15 73
e 15 76
e 15 79
e 15 80
e 15 81
e 15 84
e 15 87
e 15 91
e 15 92
e 15 95
e 15 96
e 15 99
e 15 101
e 15 104
e 15 106
e 15 110
e 15 112
e 15 113
e 15 114
e 15 118
e 15 119
e 15 120
e 15 127
e 15 130
e 15 131
e 15 133
e 15 135
e 15 136
e 15 139
e 15 140
e 15 141
e 15 145
e 15 146
e 15 147
e 15 148
e 15 149
e 15 151
e 15 152
e 15 153
e 15 155
e 15 161
e 15 163
e 15 167
e 15 168
e 15 170
e 15 171
e 15 172
e 15 174
e 15 175
e 15 176
e 15 177
e 15 178
e 15 179
e 15 180
e 15 183
e 15 184
e 15 185
e 15 188
e 15 189
e 15 190
e 15 192
e 15 193
e 15 195
e 15 197
e 15 199
e 15 201
e 15 202
e 15 203
e 15 205
e 15 206
e 15 208
e 15 209
e 15 211
e 15 212
e 15 213
e 15 215
e 15 216
e 15 217
e 15 218
e 15 219
e 15 222
e 15 225
e 15 226
e 15 228
e 15 231
e 15 233
e 15 234
e 15 236
e 15 237
e 15 239
e 15 240
e 15 241
e 15 243
e 15 244
e 15 245
e 15 246
e 15 247
e 15 249
e 15 250
e 16 17
e 16 20
e 16 21
e 16 23
e 16 24
e 16 28
e 16 30
e 16 32
e 16 35
e 16 36
e 16 37
e 16 38
e 16 39
e 16 44
e 16 45
e 16 47
e 16 50
e 16 51
e 16 53
e 16 54
e 16 58
e 16 59
e 16 60
e 16 61
e 16 63
e 16 64
e 16 66
e 16 68
e 16 69
e 16 71
e 16 72
e 16 76
e 16 77
e 16 79
e 16 80
e 16 85
e 16 89
e 16 91
e 16 93
e 16 97
e 16 100
e 16 101
e 16 102
e 16 103
e 16 104
e 16 106
e 16 107
e 16 108
e 16 109
e 16 110
e 16 111
e 16 112
e 16 113
e 16 116
e 16 117
e 16 121
e 16 122
e 16 123
e 16 125
e 16 126
e 16 127
e 16 128
e 16 129
e 16 130
e 16 133
e 16 137
e 16 138
e 16 139
e 16 140
e 16 141
e 16 142
e 16 150
e 16 151
e 16 154
e 16 155
e 16 158
e 16 163
e 16 164
e 16 166
e 16 167
e 16 169
e 16 172
e 16 173
e 16 175
e 16 178
e 16 179
e 16 180
e 16 181
e 16 183
e 16 184
e 16 185
e 16 186
e 16 187
e 16 193
e 16 194
e 16 195
e 16 196
e 16 197
e 16 198
e 16 199
e 16 200
e 16 202
e 16 205
e 16 206
e 16 207
e 16 210
e 16 213
e 16 214
e 16 215
e 16 216
e 16 217
e 16 218
e 16 219
e 16 220
e 16 221
e 16 222
e 16 225
e 16 228
e 16 229
e 16 231
e 16 232
e 16 233
e 16 235
e 16 236
e 16 237
e 16 238
e 16 240
e 16 246
e 16 249
e 16 250
e 17 18
e 17 19
e 17 25
e 17 27
e 17 28
e 17 29
e 17 30
e 17 31
e 17 32
e 17 36
e 17 37
e 17 38
e 17 41
e 17 42
e 17 45
e 17 47
e 17 49
e 17 50
e 17 51
e 17 52
e 17 53
e 17 56
e 17 58
e 17 60
e 17 63
e 17 64
e 17 66
e 17 68
e 17 69
e 17 70
e 17 71
e 17 72
e 17 73
e 17 74
e 17 79
e 17 81
e 17 87
e 17 88
e 17 89
e 17 90
e 17 93
e 17 94
e 17 95
e 17 96
e 17 98
e 17 101
e 17 102
e 17 103
e 17 104
e 17 108
e 17 109
e 17 111
e 17 115
e 17 116
e 17 118
e 17 122
e 17 123
e 17 124
e 17 125
e 17 127
e 17 128
e 17 133
e 17 135
e 17 136
e 17 143
e 17 146
e 17 149
e 17 154
e 17 158
e 17 161
e 17 167
e 17 168
e 17 170
e 17 171
e 17 172
e 17 174
e 17 177
e 17 178
e 17 182
e 17 183
e 17 185
e 17 186
e 17 191
e 17 192
e 17 194
e 17 195
e 17 198
e 17 200
e 17 202
e 17 204
e 17 205
e 17 208
e 17 210
e 17 212
e 17 214
e 17 215
e 17 216
e 17 217
e 17 219
e 17 221
e 17 222
e 17 224
e 17 225
e 17 227
e 17 228
e 17 232
e 17 234
e 17 235
e 17 236
e 17 237
e 17 240
e 17 241
e 17 242
e 17 244
e 17 246
e 17 249
e 17 250
e 18 21
e 18 23
e 18 27
e 18 28
e 18 30
e 18 31
e 18 33
e 18 34
e 18 37
e 18 40
e 18 41
e 18 42
e 18 43
e 18 44
e 18 45
e 18 47
e 18 48
e 18 49
e 18 52
e 18 55
e 18 57
e 18 59
e 18 61
e 18 63
e 18 65
e 18 66
e 18 67
e 18 68
e 18 69
e 18 70
e 18 71
e 18 73
e 18 76
e 18 77
e 18 83
e 18 88
e 18 89
e 18 90
e 18 91
e 18 93
e 18 95
e 18 97
e 18 101
e 18 102
e 18 104
e 18 107
e 18 109
e 18 113
e 18 119
e 18 120
e 18 121
e 18 124
e 18 127
e 18 128
e 18 130
e 18 131
e 18 133
e 18 137
e 18 139
e 18 141
e 18 143
e 18 147
e 18 148
e 18 155
e 18 158
e 18 163
e 18 164
e 18 165
e 18 167
e 18 169
e 18 171
e 18 176
e 18 177
e 18 180
e 18 181
e 18 183
e 18 184
e 18 185
e 18 186
e 18 187
e 18 189
e 18 191
e 18 194
e 18 195
e 18 196
e 18 199
e 18 200
e 18 205
e 18 206
e 18 208
e 18 214
e 18 215
e 18 216
e 18 217
e 18 221
e 18 222
e 18 225
e 18 227
e 18 228
e 18 231
e 18 234
e 18 235
e 18 236
e 18 237
e 18 240
e 18 241
e 18 245
e 18 246
e 18 247
e 18 248
e 18 249
e 18 250
e 19 20
e 19 21
e 19 22
e 19 23
e 19 24
e 19 26
e 19 30
e 19 33
e 19 36
e 19 37
e 19 39
e 19 41
e 19 42
e 19 44
e 19 45
e 19 48
e 19 51
e 19 52
e 19 55
e 19 56
e 19 57
e 19 58
e 19 60
e 19 62
e 19 64
e 19 68
e 19 70
e 19 73
e 19 74
e 19 77
e 19 78
e 19 79
e 19 81
e 19 82
e 19 83
e 19 85
e 19 86
e 19 89
e 19 90
e 19 91
e 19 94
e 19 95
e 19 102
e 19 104
e 19 107
e 19 110
e 19 111
e 19 112
e 19 113
e 19 114
e 19 116
e 19 117
e 19 118
e 19 125
e 19 126
e 19 127
e 19 129
e 19 131
e 19 134
e 19 137
e 19 140
e 19 141
e 19 142
e 19 143
e 19 144
e 19 145
e 19 146
e 19 148
e 19 149
e 19 150
e 19 151
e 19 152
e 19 155
e 19 156
e 19 157
e 19 160
e 19 162
e 19 166
e 19 167
e 19 168
e 19 172
e 19 173
e 19 174
e 19 175
e 19 177
e 19 180
e 19 181
e 19 183
e 19 184
e 19 187
e 19 188
e 19 189
e 19 190
e 19 193
e 19 197
e 19 198
e 19 200
e 19 201
e 19 203
e 19 204
e 19 205
e 19 210
e 19 212
e 19 213
e 19 214
e 19 215
e 19 216
e 19 217
e 19 218
e 19 219
e 19 220
e 19 222
e 19 223
e 19 227
e 19 229
e 19 230
e 19 232
e 19 237
e 19 239
e 19 241
e 19 242
e 19 246
e 19 248
e 19 250
e 20 22
e 20 28
e 20 30
e 20 31
e 20 34
e 20 36
e 20 38
e 20 40
e 20 42
e 20 43
e 20 45
e 20 46
e 20 49
e 20 51
e 20 54
e 20 55
e 20 57
e 20 59
e 20 61
e 20 62
e 20 64
e 20 67
e 20 69
e 20 72
e 20 75
e 20 76
e 20 80
e 20 83
e 20 90
e 20 92
e 20 93
e 20 94
e 20 95
e 20 97
e 20 98
e 20 99
e 20 101
e 20 102
e 20 103
e 20 106
e 20 107
e 20 108
e 20 111
e 20 112
e 20 114
e 20 115
e 20 117
e 20 119
e 20 121
e 20 123
e 20 126
e 20 128
e 20 130
e 20 131
e 20 136
e 20 139
e 20 140
e 20 142
e 20 143
e 20 147
e 20 149
e 20 152
e 20 153
e 20 154
e 20 156
e 20 159
e 20 160
e 20 161
e 20 163
e 20 164
e 20 167
e 20 174
e 20 175
e 20 176
e 20 177
e 20 179
e 20 184
e 20 186
e 20 189
e 20 191
e 20 196
e 20 197
e 20 198
e 20 199
e 20 200
e 20 204
e 20 205
e 20 206
e 20 207
e 20 208
e 20 210
e 20 212
e 20 218
e 20 219
e 20 220
e 20 224
e 20 225
e 20 226
e 20 228
e 20 229
e 20 231
e 20 232
e 20 233
e 20 234
e 20 235
e 20 236
e 20 238
e 20 239
e 20 241
e 20 244
e 20 249
e 20 250
e 21 27
e 21 30
e 21 31
e 21 32
e 21 33
e 21 34
e 21 38
e 21 42
e 21 44
e 21 45
e 21 49
e 21 50
e 21 52
e 21 53
e 21 54
e 21 56
e 21 58
e 21 62
e 21 66
e 21 68
e 21 69
e 21 70
e 21 77
e 21 78
e 21 81
e 21 83
e 21 84
e 21 87
e 21 88
e 21 89
e 21 90
e 21 96
e 21 98
e 21 99
e 21 100
e 21 103
e 21 104
e 21 105
e 21 109
e 21 111
e 21 114
e 21 115
e 21 117
e 21 118
e 21 119
e 21 122
e 21 123
e 21 124
e 21 125
e 21 126
e 21 127
e 21 128
e 21 131
e 21 138
e 21 142
e 21 144
e 21 145
e 21 147
e 21 148
e 21 152
e 21 153
e 21 154
e 21 155
e 21 158
e 21 160
e 21 161
e 21 165
e 21 166
e 21 167
e 21 170
e 21 171
e 21 173
e 21 175
e 21 177
e 21 178
e 21 181
e 21 182
e 21 183
e 21 184
e 21 190
e 21 192
e 21 193
e 21 199
e 21 201
e 21 203
e 21 209
e 21 210
e 21 213
e 21 214
e 21 217
e 21 220
e 21 225
e 21 226
e 21 229
e 21 230
e 21 231
e 21 236
e 21 238
e 21 240
e 21 242
e 21 243
e 21 244
e 21 247
e 21 250
e 22 23
e 22 24
e 22 25
e 22 26
e 22 27
e 22 28
e 22 29
e 22 31
e 22 33
e 22 34
e 22 36
e 22 40
e 22 41
e 22 42
e 22 46
e 22 47
e 22 48
e 22 49
e 22 51
e 22 52
e 22 54
e 22 55
e 22 59
e 22 61
e 22 63
e 22 69
e 22 72
e 22 74
e 22 75
e 22 76
e 22 79
e 22 80
e 22 81
e 22 83
e 22 84
e 22 87
e 22 90
e 22 91
e 22 97
e 22 100
e 22 101
e 22 102
e 22 103
e 22 105
e 22 107
e 22 108
e 22 111
e 22 112
e 22 115
e 22 116
e 22 119
e 22 120
e 22 121
e 22 125
e 22 126
e 22 127
e 22 130
e 22 131
e 22 133
e 22 134
e 22 135
e 22 139
e 22 140
e 22 141
e 22 143
e 22 144
e 22 145
e 22 147
e 22 149
e 22 152
e 22 154
e 22 155
e 22 158
e 22 161
e 22 162
e 22 163
e 22 164
e 22 170
e 22 171
e 22 174
e 22 177
e 22 181
e 22 182
e 22 187
e 22 194
e 22 195
e 22 199
e 22 201
e 22 202
e 22 206
e 22 209
e 22 210
e 22 211
e 22 212
e 22 213
e 22 214
e 22 215
e 22 216
e 22 218
e 22 219
e 22 224
e 22 228
e 22 229
e 22 231
e 22 232
e 22 234
e 22 238
e 22 240
e 22 241
e 22 243
e 22 247
e 22 248
e 23 24
e 23 26
e 23 27
e 23 29
e 23 31
e 23 32
e 23 34
e 23 39
e 23 40
e 23 41
e 23 47
e 23 48
e 23 52
e 23 53
e 23 55
e 23 56
e 23 58
e 23 59
e 23 60
e 23 62
e 23 63
e 23 67
e 23 68
e 23 69
e 23 71
e 23 72
e 23 74
e 23 75
e 23 81
e 23 85
e 23 86
e 23 87
e 23 89
e 23 93
e 23 94
e 23 95
e 23 97
e 23 98
e 23 99
e 23 100
e 23 102
e 23 103
e 23 104
e 23 105
e 23 106
e 23 108
e 23 110
e 23 112
e 23 113
e 23 114
e 23 115
e 23 116
e 23 117
e 23 120
e 23 121
e 23 122
e 23 124
e 23 128
e 23 129
e 23 132
e 23 133
e 23 138
e 23 140
e 23 141
e 23 150
e 23 154
e 23 156
e 23 158
e 23 160
e 23 161
e 23 163
e 23 167
e 23 168
e 23 173
e 23 177
e 23 178
e 23 180
e 23 181
e 23 182
e 23 186
e 23 189
e 23 190
e 23 193
e 23 194
e 23 195
e 23 196
e 23 198
e 23 200
e 23 202
e 23 209
e 23 211
e 23 212
e 23 213
e 23 214
e 23 218
e 23 219
e 23 221
e 23 222
e 23 224
e 23 226
e 23 227
e 23 228
e 23 230
e 23 232
e 23 233
e 23 234
e 23 235
e 23 236
e 23 240
e 23 242
e 23 246
e 23 248
e 23 249
e 24 27
e 24 31
e 24 32
e 24 33
e 24 35
e 24 36
e 24 37
e 24 40
e 24 42
e 24 44
e 24 46
e 24 47
e 24 48
e 24 49
e 24 50
e 24 52
e 24 56
e 24 57
e 24 58
e 24 60
e 24 61
e 24 64
e 24 66
e 24 67
e 24 70
e 24 71
e 24 76
e 24 77
e 24 78
e 24 80
e 24 83
e 24 86
e 24 88
e 24 92
e 24 94
e 24 95
e 24 96
e 24 97
e 24 98
e 24 99
e 24 103
e 24 105
e 24 108
e 24 109
e 24 110
e 24 115
e 24 116
e 24 117
e 24 119
e 24 120
e 24 121
e 24 122
e 24 123
e 24 124
e 24 126
e 24 128
e 24 130
e 24 131
e 24 133
e 24 134
e 24 137
e 24 140
e 24 141
e 24 142
e 24 143
e 24 146
e 24 148
e 24 149
e 24 151
e 24 153
e 24 158
e 24 160
e 24 161
e 24 162
e 24 163
e 24 164
e 24 168
e 24 170
e 24 171
e 24 172
e 24 175
e 24 176
e 24 179
e 24 180
e 24 181
e 24 185
e 24 186
e 24 188
e 24 189
e 24 191
e 24 193
e 24 194
e 24 195
e 24 196
e 24 197
e 24 198
e 24 206
e 24 207
e 24 208
e 24 211
e 24 212
e 24 213
e 24 217
e 24 220
e 24 226
e 24 227
e 24 232
e 24 233
e 24 234
e 24 237
e 24 240
e 24 241
e 24 242
e 24 243
e 24 244
e 24 246
e 24 248
e 24 249
e 24 250
e 25 26
e 25 27
e 25 32
e 25 34
e 25 35
e 25 36
e 25 37
e 25 38
e 25 39
e 25 40
e 25 41
e 25 42
e 25 43
e 25 45
e 25 46
e 25 47
e 25 49
e 25 52
e 25 55
e 25 56
e 25 58
e 25 59
e 25 60
e 25 61
e 25 67
e 25 68
e 25 70
e 25 72
e 25 73
e 25 76
e 25 77
e 25 78
e 25 81
e 25 82
e 25 84
e 25 86
e 25 87
e 25 92
e 25 97
e 25 98
e 25 99
e 25 100
e 25 103
e 25 104
e 25 106
e 25 108
e 25 110
e 25 117
e 25 119
e 25 120
e 25 123
e 25 125
e 25 126
e 25 128
e 25 129
e 25 134
e 25 137
e 25 138
e 25 139
e 25 142
e 25 144
e 25 145
e 25 146
e 25 150
e 25 153
e 25 155
e 25 157
e 25 158
e 25 159
e 25 161
e 25 163
e 25 164
e 25 165
e 25 167
e 25 168
e 25 169
e 25 172
e 25 173
e 25 174
e 25 175
e 25 178
e 25 179
e 25 180
e 25 184
e 25 186
e 25 190
e 25 191
e 25 193
e 25 195
e 25 197
e 25 200
e 25 201
e 25 205
e 25 207
e 25 208
e 25 211
e 25 212
e 25 217
e 25 218
e 25 221
e 25 222
e 25 226
e 25 227
e 25 230
e 25 231
e 25 233
e 25 234
e 25 239
e 25 240
e 25 242
e 25 245
e 25 246
e 26 28
e 26 30
e 26 32
e 26 33
e 26 35
e 26 36
e 26 37
e 26 38
e 26 41
e 26 42
e 26 44
e 26 46
e 26 47
e 26 48
e 26 49
e 26 50
e 26 53
e 26 54
e 26 55
e 26 57
e 26 60
e 26 61
e 26 62
e 26 66
e 26 67
e 26 68
e 26 72
e 26 73
e 26 74
e 26 76
e 26 77
e 26 79
e 26 81
e 26 83
e 26 84
e 26 86
e 26 87
e 26 88
e 26 89
e 26 92
e 26 93
e 26 96
e 26 98
e 26 99
e 26 102
e 26 105
e 26 106
e 26 107
e 26 110
e 26 114
e 26 115
e 26 118
e 26 121
e 26 122
e 26 124
e 26 126
e 26 127
e 26 128
e 26 129
e 26 132
e 26 138
e 26 139
e 26 140
e 26 141
e 26 147
e 26 149
e 26 150
e 26 154
e 26 156
e 26 157
e 26 160
e 26 165
e 26 166
e 26 169
e 26 170
e 26 171
e 26 172
e 26 174
e 26 179
e 26 180
e 26 181
e 26 185
e 26 186
e 26 188
e 26 190
e 26 201
e 26 204
e 26 206
e 26 207
e 26 208
e 26 209
e 26 216
e 26 217
e 26 218
e 26 219
e 26 220
e 26 221
e 26 222
e 26 226
e 26 227
e 26 228
e 26 229
e 26 230
e 26 231
e 26 232
e 26 234
e 26 236
e 26 241
e 26 242
e 26 246
e 26 248
e 26 250
e 27 29
e 27 31
e 27 32
e 27 34
e 27 37
e 27 38
e 27 39
e 27 40
e 27 41
e 27 43
e 27 44
e 27 46
e 27 48
e 27 50
e 27 51
e 27 53
e 27 54
e 27 56
e 27 57
e 27 62
e 27 63
e 27 65
e 27 72
e 27 74
e 27 76
e 27 77
e 27 79
e 27 81
e 27 82
e 27 84
e 27 86
e 27 87
e 27 90
e 27 93
e 27 95
e 27 96
e 27 99
e 27 100
e 27 101
e 27 102
e 27 106
e 27 107
e 27 109
e 27 111
e 27 112
e 27 113
e 27 114
e 27 116
e 27 118
e 27 121
e 27 122
e 27 124
e 27 127
e 27 134
e 27 136
e 27 137
e 27 138
e 27 140
e 27 142
e 27 143
e 27 144
e 27 145
e 27 147
e 27 154
e 27 156
e 27 163
e 27 165
e 27 166
e 27 169
e 27 170
e 27 172
e 27 173
e 27 174
e 27 175
e 27 179
e 27 180
e 27 181
e 27 182
e 27 183
e 27 184
e 27 186
e 27 187
e 27 188
e 27 192
e 27 197
e 27 200
e 27 201
e 27 202
e 27 204
e 27 205
e 27 207
e 27 208
e 27 210
e 27 211
e 27 214
e 27 215
e 27 219
e 27 221
e 27 222
e 27 224
e 27 227
e 27 229
e 27 230
e 27 231
e 27 232
e 27 234
e 27 235
e 27 236
e 27 237
e 27 238
e 27 239
e 27 241
e 27 242
e 27 243
e 27 246
e 27 249
e 28 29
e 28 31
e 28 32
e 28 34
e 28 37
e 28 39
e 28 40
e 28 42
e 28 46
e 28 47
e 28 48
e 28 50
e 28 54
e 28 56
e 28 57
e 28 58
e 28 60
e 28 61
e 28 62
e 28 63
e 28 64
e 28 65
e 28 67
e 28 71
e 28 74
e 28 76
e 28 78
e 28 81
e 28 82
e 28 83
e 28 84
e 28 87
e 28 88
e 28 90
e 28 92
e 28 96
e 28 97
e 28 98
e 28 102
e 28 104
e 28 108
e 28 110
e 28 111
e 28 112
e 28 114
e 28 115
e 28 117
e 28 118
e 28 119
e 28 121
e 28 122
e 28 125
e 28 127
e 28 128
e 28 130
e 28 131
e 28 133
e 28 137
e 28 138
e 28 139
e 28 140
e 28 142
e 28 144
e 28 145
e 28 146
e 28 152
e 28 153
e 28 154
e 28 155
e 28 156
e 28 157
e 28 158
e 28 160
e 28 162
e 28 163
e 28 164
e 28 166
e 28 168
e 28 169
e 28 171
e 28 174
e 28 175
e 28 177
e 28 179
e 28 182
e 28 185
e 28 187
e 28 188
e 28 189
e 28 192
e 28 193
e 28 194
e 28 195
e 28 197
e 28 198
e 28 199
e 28 200
e 28 203
e 28 205
e 28 206
e 28 215
e 28 216
e 28 218
e 28 220
e 28 222
e 28 224
e 28 226
e 28 228
e 28 230
e 28 231
e 28 232
e 28 233
e 28 234
e 28 236
e 28 238
e 28 241
e 28 242
e 28 245
e 28 246
e 28 248
e 29 30
e 29 33
e 29 34
e 29 36
e 29 43
e 29 46
e 29 47
e 29 48
e 29 51
e 29 52
e 29 54
e 29 55
e 29 64
e 29 66
e 29 68
e 29 69
e 29 74
e 29 75
e 29 78
e 29 79
e 29 82
e 29 84
e 29 89
e 29 91
e 29 92
e 29 98
e 29 99
e 29 101
e 29 102
e 29 103
e 29 104
e 29 108
e 29 110
e 29 111
e 29 113
e 29 114
e 29 116
e 29 118
e 29 120
e 29 121
e 29 122
e 29 124
e 29 126
e 29 127
e 29 128
e 29 129
e 29 130
e 29 131
e 29 134
e 29 136
e 29 138
e 29 139
e 29 141
e 29 142
e 29 145
e 29 146
e 29 147
e 29 149
e 29 152
e 29 154
e 29 155
e 29 156
e 29 158
e 29 159
e 29 160
e 29 165
e 29 170
e 29 171
e 29 173
e 29 176
e 29 178
e 29 179
e 29 180
e 29 181
e 29 182
e 29 185
e 29 186
e 29 187
e 29 189
e 29 195
e 29 196
e 29 198
e 29 199
e 29 200
e 29 202
e 29 204
e 29 206
e 29 209
e 29 210
e 29 212
e 29 216
e 29 217
e 29 218
e 29 219
e 29 220
e 29 222
e 29 227
e 29 228
e 29 234
e 29 235
e 29 236
e 29 237
e 29 238
e 29 239
e 29 240
e 29 241
e 29 242
e 29 244
e 29 245
e 29 246
e 30 31
e 30 32
e 30 33
e 30 34
e 30 35
e 30 37
e 30 39
e 30 43
e 30 45
e 30 47
e 30 48
e 30 49
e 30 50
e 30 52
e 30 53
e 30 56
e 30 60
e 30 61
e 30 62
e 30 63
e 30 66
e 30 67
e 30 68
e 30 71
e 30 72
e 30 77
e 30 78
e 30 80
e 30 82
e 30 83
e 30 84
e 30 90
e 30 91
e 30 92
e 30 94
e 30 95
e 30 97
e 30 98
e 30 99
e 30 100
e 30 102
e 30 105
e 30 107
e 30 109
e 30 110
e 30 112
e 30 117
e 30 119
e 30 120
e 30 125
e 30 126
e 30 127
e 30 128
e 30 130
e 30 131
e 30 132
e 30 137
e 30 139
e 30 141
e 30 142
e 30 146
e 30 148
e 30 149
e 30 151
e 30 154
e 30 156
e 30 157
e 30 158
e 30 159
e 30 163
e 30 164
e 30 167
e 30 168
e 30 172
e 30 174
e 30 175
e 30 177
e 30 178
e 30 179
e 30 180
e 30 182
e 30 183
e 30 184
e 30 186
e 30 187
e 30 188
e 30 189
e 30 192
e 30 194
e 30 196
e 30 197
e 30 200
e 30 202
e 30 203
e 30 204
e 30 205
e 30 206
e 30 207
e 30 208
e 30 213
e 30 216
e 30 218
e 30 220
e 30 221
e 30 222
e 30 224
e 30 225
e 30 226
e 30 227
e 30 230
e 30 233
e 30 236
e 30 240
e 30 241
e 30 247
e 30 250
e 31 33
e 31 34
e 31 36
e 31 38
e 31 40
e 31 45
e 31 47
e 31 48
e 31 49
e 31 51
e 31 52
e 31 54
e 31 56
e 31 57
e 31 58
e 31 60
e 31 63
e 31 65
e 31 68
e 31 69
e 31 73
e 31 75
e 31 76
e 31 77
e 31 78
e 31 79
e 31 80
e 31 82
e 31 85
e 31 86
e 31 93
e 31 98
e 31 99
e 31 102
e 31 109
e 31 111
e 31 112
e 31 116
e 31 117
e 31 118
e 31 119
e 31 120
e 31 122
e 31 123
e 31 125
e 31 126
e 31 127
e 31 128
e 31 132
e 31 133
e 31 136
e 31 137
e 31 139
e 31 144
e 31 147
e 31 148
e 31 150
e 31 151
e 31 153
e 31 154
e 31 155
e 31 157
e 31 160
e 31 162
e 31 165
e 31 169
e 31 176
e 31 180
e 31 181
e 31 182
e 31 183
e 31 187
e 31 193
e 31 194
e 31 196
e 31 198
e 31 199
e 31 200
e 31 203
e 31 205
e 31 206
e 31 210
e 31 212
e 31 213
e 31 215
e 31 216
e 31 217
e 31 220
e 31 227
e 31 228
e 31 230
e 31 232
e 31 233
e 31 235
e 31 236
e 31 238
e 31 239
e 31 243
e 31 244
e 31 248
e 31 249
e 32 37
e 32 38
e 32 40
e 32 42
e 32 43
e 32 44
e 32 47
e 32 48
e 32 50
e 32 51
e 32 53
e 32 56
e 32 57
e 32 62
e 32 64
e 32 67
e 32 68
e 32 70
e 32 71
e 32 74
e 32 75
e 32 77
e 32 81
e 32 82
e 32 83
e 32 87
e 32 95
e 32 96
e 32 100
e 32 102
e 32 103
e 32 104
e 32 105
e 32 106
e 32 107
e 32 108
e 32 109
e 32 110
e 32 112
e 32 114
e 32 117
e 32 118
e 32 120
e 32 121
e 32 126
e 32 127
e 32 128
e 32 130
e 32 134
e 32 136
e 32 137
e 32 139
e 32 140
e 32 141
e 32 142
e 32 143
e 32 144
e 32 145
e 32 146
e 32 149
e 32 150
e 32 151
e 32 152
e 32 155
e 32 156
e 32 157
e 32 163
e 32 164
e 32 165
e 32 166
e 32 167
e 32 171
e 32 174
e 32 176
e 32 177
e 32 181
e 32 182
e 32 183
e 32 185
e 32 187
e 32 188
e 32 189
e 32 191
e 32 192
e 32 194
e 32 195
e 32 200
e 32 203
e 32 204
e 32 207
e 32 208
e 32 211
e 32 214
e 32 215
e 32 220
e 32 221
e 32 223
e 32 225
e 32 226
e 32 228
e 32 233
e 32 234
e 32 236
e 32 241
e 32 242
e 32 243
e 32 246
e 32 247
e 32 248
e 32 249
e 33 37
e 33 40
e 33 42
e 33 46
e 33 47
e 33 49
e 33 51
e 33 53
e 33 56
e 33 57
e 33 58
e 33 64
e 33 65
e 33 68
e 33 69
e 33 73
e 33 74
e 33 76
e 33 79
e 33 80
e 33 82
e 33 84
e 33 86
e 33 87
e 33 88
e 33 90
e 33 91
e 33 93
e 33 94
e 33 95
e 33 96
e 33 99
e 33 101
e 33 102
e 33 104
e 33 107
e 33 111
e 33 112
e 33 114
e 33 119
e 33 127
e 33 130
e 33 132
e 33 133
e 33 135
e 33 139
e 33 142
e 33 143
e 33 144
e 33 146
e 33 147
e 33 149
e 33 151
e 33 152
e 33 153
e 33 154
e 33 159
e 33 164
e 33 165
e 33 166
e 33 170
e 33 173
e 33 175
e 33 176
e 33 177
e 33 178
e 33 180
e 33 181
e 33 182
e 33 186
e 33 187
e 33 190
e 33 191
e 33 192
e 33 195
e 33 196
e 33 201
e 33 203
e 33 204
e 33 205
e 33 209
e 33 211
e 33 212
e 33 213
e 33 214
e 33 216
e 33 218
e 33 219
e 33 220
e 33 221
e 33 225
e 33 227
e 33 228
e 33 230
e 33 231
e 33 232
e 33 234
e 33 236
e 33 237
e 33 238
e 33 240
e 33 242
e 33 245
e 33 246
e 33 248
e 33 249
e 33 250
e 34 35
e 34 37
e 34 38
e 34 39
e 34 48
e 34 49
e 34 50
e 34 55
e 34 56
e 34 57
e 34 61
e 34 62
e 34 63
e 34 65
e 34 66
e 34 67
e 34 68
e 34 69
e 34 70
e 34 71
e 34 72
e 34 73
e 34 74
e 34 76
e 34 78
e 34 80
e 34 81
e 34 84
e 34 85
e 34 86
e 34 90
e 34 91
e 34 94
e 34 95
e 34 100
e 34 102
e 34 105
e 34 106
e 34 108
e 34 109
e 34 110
e 34 112
e 34 113
e 34 114
e 34 116
e 34 118
e 34 119
e 34 122
e 34 125
e 34 127
e 34 128
e 34 130
e 34 136
e 34 137
e 34 140
e 34 142
e 34 143
e 34 144
e 34 146
e 34 147
e 34 148
e 34 149
e 34 151
e 34 154
e 34 160
e 34 163
e 34 164
e 34 165
e 34 166
e 34 167
e 34 168
e 34 172
e 34 173
e 34 174
e 34 176
e 34 180
e 34 181
e 34 182
e 34 183
e 34 184
e 34 186
e 34 188
e 34 193
e 34 196
e 34 198
e 34 201
e 34 202
e 34 203
e 34 206
e 34 207
e 34 211
e 34 212
e 34 215
e 34 216
e 34 218
e 34 226
e 34 227
e 34 229
e 34 231
e 34 233
e 34 235
e 34 236
e 34 237
e 34 239
e 34 241
e 34 246
e 34 247
e 35 36
e 35 37
e 35 39
e 35 40
e 35 41
e 35 44
e 35 45
e 35 47
e 35 48
e 35 50
e 35 51
e 35 54
e 35 58
e 35 60
e 35 62
e 35 63
e 35 68
e 35 71
e 35 73
e 35 74
e 35 75
e 35 80
e 35 81
e 35 83
e 35 86
e 35 87
e 35 88
e 35 92
e 35 93
e 35 94
e 35 96
e 35 97
e 35 98
e 35 101
e 35 104
e 35 107
e 35 108
e 35 109
e 35 112
e 35 113
e 35 116
e 35 118
e 35 120
e 35 122
e 35 124
e 35 125
e 35 126
e 35 127
e 35 128
e 35 129
e 35 131
e 35 136
e 35 137
e 35 139
e 35 140
e 35 142
e 35 144
e 35 148
e 35 153
e 35 155
e 35 157
e 35 158
e 35 167
e 35 168
e 35 170
e 35 174
e 35 176
e 35 177
e 35 178
e 35 180
e 35 182
e 35 188
e 35 192
e 35 193
e 35 194
e 35 196
e 35 199
e 35 203
e 35 204
e 35 205
e 35 208
e 35 212
e 35 213
e 35 214
e 35 219
e 35 222
e 35 223
e 35 224
e 35 226
e 35 227
e 35 228
e 35 229
e 35 232
e 35 235
e 35 237
e 35 243
e 35 246
e 35 247
e 35 250
e 36 37
e 36 38
e 36 39
e 36 40
e 36 41
e 36 43
e 36 44
e 36 45
e 36 53
e 36 54
e 36 55
e 36 59
e 36 60
e 36 61
e 36 63
e 36 65
e 36 67
e 36 69
e 36 72
e 36 73
e 36 74
e 36 76
e 36 80
e 36 87
e 36 89
e 36 92
e 36 94
e 36 96
e 36 97
e 36 98
e 36 102
e 36 104
e 36 106
e 36 107
e 36 113
e 36 114
e 36 118
e 36 119
e 36 122
e 36 128
e 36 129
e 36 131
e 36 132
e 36 133
e 36 134
e 36 136
e 36 138
e 36 139
e 36 140
e 36 141
e 36 142
e 36 147
e 36 148
e 36 150
e 36 152
e 36 153
e 36 155
e 36 156
e 36 158
e 36 160
e 36 162
e 36 163
e 36 166
e 36 168
e 36 172
e 36 173
e 36 175
e 36 178
e 36 180
e 36 182
e 36 186
e 36 187
e 36 191
e 36 192
e 36 193
e 36 195
e 36 197
e 36 200
e 36 201
e 36 202
e 36 205
e 36 209
e 36 211
e 36 214
e 36 217
e 36 218
e 36 222
e 36 223
e 36 226
e 36 228
e 36 229
e 36 232
e 36 234
e 36 238
e 36 240
e 36 241
e 36 244
e 36 245
e 36 246
e 36 247
e 36 250
e 37 44
e 37 46
e 37 48
e 37 49
e 37 50
e 37 53
e 37 54
e 37 56
e 37 58
e 37 69
e 37 70
e 37 71
e 37 73
e 37 81
e 37 87
e 37 92
e 37 95
e 37 96
e 37 97
e 37 98
e 37 100
e 37 101
e 37 103
e 37 104
e 37 108
e 37 109
e 37 112
e 37 114
e 37 118
e 37 119
e 37 121
e 37 123
e 37 124
e 37 125
e 37 127
e 37 129
e 37 131
e 37 133
e 37 134
e 37 138
e 37 142
e 37 145
e 37 146
e 37 148
e 37 149
e 37 152
e 37 153
e 37 158
e 37 161
e 37 162
e 37 167
e 37 169
e 37 170
e 37 172
e 37 174
e 37 175
e 37 178
e 37 182
e 37 183
e 37 184
e 37 185
e 37 187
e 37 189
e 37 191
e 37 194
e 37 196
e 37 201
e 37 206
e 37 207
e 37 209
e 37 210
e 37 211
e 37 212
e 37 214
e 37 215
e 37 216
e 37 218
e 37 220
e 37 221
e 37 225
e 37 226
e 37 229
e 37 231
e 37 232
e 37 235
e 37 236
e 37 237
e 37 238
e 37 239
e 37 240
e 37 242
e 37 243
e 37 245
e 37 246
e 37 247
e 38 39
e 38 42
e 38 43
e 38 49
e 38 51
e 38 52
e 38 57
e 38 58
e 38 61
e 38 62
e 38 63
e 38 67
e 38 68
e 38 70
e 38 72
e 38 73
e 38 75
e 38 78
e 38 79
e 38 86
e 38 87
e 38 88
e 38 91
e 38 94
e 38 96
e 38 97
e 38 100
e 38 104
e 38 106
e 38 108
e 38 109
e 38 110
e 38 111
e 38 112
e 38 113
e 38 115
e 38 117
e 38 119
e 38 120
e 38 121
e 38 122
e 38 125
e 38 126
e 38 129
e 38 132
e 38 133
e 38 136
e 38 138
e 38 139
e 38 140
e 38 141
e 38 142
e 38 143
e 38 145
e 38 146
e 38 153
e 38 154
e 38 155
e 38 156
e 38 157
e 38 160
e 38 164
e 38 166
e 38 167
e 38 172
e 38 173
e 38 174
e 38 175
e 38 178
e 38 180
e 38 182
e 38 183
e 38 186
e 38 187
e 38 188
e 38 190
e 38 192
e 38 194
e 38 195
e 38 196
e 38 197
e 38 198
e 38 200
e 38 201
e 38 202
e 38 203
e 38 207
e 38 209
e 38 217
e 38 220
e 38 221
e 38 222
e 38 223
e 38 226
e 38 227
e 38 228
e 38 231
e 38 232
e 38 235
e 38 237
e 38 239
e 38 241
e 38 243
e 38 246
e 38 249
e 38 250
e 39 41
e 39 42
e 39 43
e 39 44
e 39 45
e 39 47
e 39 52
e 39 53
e 39 58
e 39 61
e 39 62
e 39 63
e 39 64
e 39 68
e 39 70
e 39 71
e 39 72
e 39 73
e 39 78
e 39 82
e 39 84
e 39 85
e 39 86
e 39 88
e 39 91
e 39 93
e 39 94
e 39 95
e 39 97
e 39 103
e 39 104
e 39 106
e 39 107
e 39 108
e 39 109
e 39 110
e 39 111
e 39 114
e 39 115
e 39 116
e 39 117
e 39 120
e 39 121
e 39 122
e 39 123
e 39 127
e 39 130
e 39 132
e 39 135
e 39 137
e 39 139
e 39 142
e 39 145
e 39 146
e 39 147
e 39 148
e 39 149
e 39 150
e 39 151
e 39 152
e 39 156
e 39 157
e 39 160
e 39 162
e 39 163
e 39 165
e 39 168
e 39 170
e 39 172
e 39 175
e 39 177
e 39 178
e 39 184
e 39 186
e 39 188
e 39 191
e 39 192
e 39 195
e 39 197
e 39 199
e 39 203
e 39 204
e 39 208
e 39 210
e 39 213
e 39 214
e 39 217
e 39 223
e 39 227
e 39 229
e 39 234
e 39 235
e 39 237
e 39 239
e 39 241
e 39 244
e 39 245
e 39 246
e 39 247
e 39 248
e 39 250
e 40 41
e 40 42
e 40 45
e 40 46
e 40 49
e 40 50
e 40 57
e 40 63
e 40 70
e 40 71
e 40 74
e 40 77
e 40 79
e 40 81
e 40 82
e 40 84
e 40 85
e 40 87
e 40 93
e 40 95
e 40 96
e 40 99
e 40 100
e 40 102
e 40 103
e 40 104
e 40 105
e 40 106
e 40 107
e 40 110
e 40 111
e 40 112
e 40 113
e 40 116
e 40 117
e 40 119
e 40 124
e 40 125
e 40 132
e 40 135
e 40 136
e 40 137
e 40 138
e 40 141
e 40 143
e 40 147
e 40 149
e 40 150
e 40 151
e 40 152
e 40 153
e 40 154
e 40 155
e 40 156
e 40 158
e 40 160
e 40 165
e 40 166
e 40 167
e 40 168
e 40 169
e 40 175
e 40 176
e 40 178
e 40 180
e 40 181
e 40 182
e 40 184
e 40 186
e 40 187
e 40 189
e 40 190
e 40 191
e 40 192
e 40 193
e 40 194
e 40 197
e 40 199
e 40 201
e 40 205
e 40 213
e 40 214
e 40 215
e 40 220
e 40 225
e 40 227
e 40 228
e 40 232
e 40 233
e 40 235
e 40 237
e 40 238
e 40 239
e 40 240
e 40 249
e 40 250
e 41 42
e 41 43
e 41 44
e 41 45
e 41 46
e 41 47
e 41 48
e 41 49
e 41 51
e 41 52
e 41 56
e 41 57
e 41 59
e 41 60
e 41 62
e 41 63
e 41 64
e 41 66
e 41 68
e 41 70
e 41 71
e 41 73
e 41 74
e 41 76
e 41 78
e 41 80
e 41 81
e 41 82
e 41 83
e 41 86
e 41 87
e 41 91
e 41 92
e 41 93
e 41 96
e 41 97
e 41 99
e 41 100
e 41 101
e 41 102
e 41 106
e 41 112
e 41 113
e 41 115
e 41 118
e 41 119
e 41 120
e 41 123
e 41 127
e 41 128
e 41 131
e 41 132
e 41 134
e 41 135
e 41 136
e 41 137
e 41 139
e 41 143
e 41 144
e 41 146
e 41 148
e 41 152
e 41 153
e 41 158
e 41 159
e 41 160
e 41 161
e 41 162
e 41 166
e 41 170
e 41 174
e 41 176
e 41 177
e 41 180
e 41 181
e 41 182
e 41 183
e 41 189
e 41 191
e 41 196
e 41 197
e 41 198
e 41 200
e 41 202
e 41 203
e 41 207
e 41 208
e 41 209
e 41 210
e 41 212
e 41 213
e 41 214
e 41 220
e 41 222
e 41 226
e 41 227
e 41 232
e 41 234
e 41 235
e 41 236
e 41 238
e 41 239
e 41 240
e 41 241
e 41 242
e 41 243
e 41 244
e 41 246
e 41 247
e 41 250
e 42 43
e 42 44
e 42 47
e 42 48
e 42 49
e 42 53
e 42 55
e 42 56
e 42 57
e 42 58
e 42 60
e 42 61
e 42 62
e 42 65
e 42 67
e 42 70
e 42 72
e 42 74
e 42 76
e 42 78
e 42 80
e 42 84
e 42 85
e 42 86
e 42 90
e 42 93
e 42 97
e 42 98
e 42 99
e 42 100
e 42 105
e 42 106
e 42 107
e 42 108
e 42 109
e 42 111
e 42 114
e 42 116
e 42 118
e 42 120
e 42 122
e 42 124
e 42 128
e 42 130
e 42 132
e 42 133
e 42 135
e 42 136
e 42 137
e 42 139
e 42 141
e 42 143
e 42 144
e 42 146
e 42 150
e 42 151
e 42 153
e 42 154
e 42 155
e 42 158
e 42 159
e 42 160
e 42 162
e 42 163
e 42 165
e 42 168
e 42 169
e 42 171
e 42 172
e 42 174
e 42 175
e 42 176
e 42 177
e 42 178
e 42 181
e 42 182
e 42 183
e 42 184
e 42 186
e 42 189
e 42 194
e 42 195
e 42 197
e 42 198
e 42 201
e 42 203
e 42 204
e 42 205
e 42 206
e 42 207
e 42 208
e 42 210
e 42 211
e 42 212
e 42 216
e 42 217
e 42 221
e 42 222
e 42 224
e 42 229
e 42 230
e 42 232
e 42 234
e 42 235
e 42 236
e 42 237
e 42 238
e 42 240
e 42 247
e 42 250
e 43 45
e 43 48
e 43 49
e 43 50
e 43 51
e 43 54
e 43 56
e 43 57
e 43 58
e 43 65
e 43 67
e 43 68
e 43 69
e 43 70
e 43 74
e 43 76
e 43 80
e 43 83
e 43 85
e 43 86
e 43 87
e 43 89
e 43 91
e 43 95
e 43 98
e 43 101
e 43 104
e 43 105
e 43 107
e 43 108
e 43 109
e 43 111
e 43 116
e 43 117
e 43 120
e 43 121
e 43 125
e 43 126
e 43 128
e 43 129
e 43 130
e 43 131
e 43 134
e 43 140
e 43 142
e 43 146
e 43 148
e 43 150
e 43 154
e 43 156
e 43 159
e 43 160
e 43 162
e 43 164
e 43 168
e 43 171
e 43 172
e 43 173
e 43 174
e 43 176
e 43 177
e 43 178
e 43 179
e 43 181
e 43 182
e 43 184
e 43 186
e 43 188
e 43 190
e 43 191
e 43 192
e 43 193
e 43 197
e 43 198
e 43 199
e 43 201
e 43 202
e 43 203
e 43 205
e 43 207
e 43 208
e 43 209
e 43 210
e 43 212
e 43 214
e 43 216
e 43 218
e 43 219
e 43 220
e 43 222
e 43 224
e 43 226
e 43 227
e 43 228
e 43 231
e 43 232
e 43 233
e 43 234
e 43 236
e 43 238
e 43 239
e 43 240
e 43 243
e 43 246
e 43 247
e 43 249
e 43 250
e 44 46
e 44 47
e 44 50
e 44 51
e 44 55
e 44 56
e 44 59
e 44 60
e 44 61
e 44 62
e 44 63
e 44 65
e 44 66
e 44 69
e 44 71
e 44 73
e 44 76
e 44 77
e 44 78
e 44 80
e 44 82
e 44 84
e 44 86
e 44 87
e 44 89
e 44 94
e 44 96
e 44 97
e 44 98
e 44 102
e 44 106
e 44 107
e 44 109
e 44 110
e 44 111
e 44 115
e 44 117
e 44 120
e 44 121
e 44 123
e 44 124
e 44 127
e 44 129
e 44 130
e 44 133
e 44 135
e 44 137
e 44 140
e 44 141
e 44 142
e 44 144
e 44 145
e 44 146
e 44 151
e 44 153
e 44 154
e 44 156
e 44 157
e 44 158
e 44 162
e 44 165
e 44 166
e 44 167
e 44 168
e 44 171
e 44 172
e 44 175
e 44 179
e 44 180
e 44 182
e 44 184
e 44 185
e 44 186
e 44 187
e 44 189
e 44 191
e 44 193
e 44 198
e 44 199
e 44 203
e 44 204
e 44 206
e 44 207
e 44 210
e 44 212
e 44 213
e 44 219
e 44 222
e 44 223
e 44 224
e 44 225
e 44 226
e 44 229
e 44 232
e 44 234
e 44 237
e 44 240
e 44 242
e 44 243
e 44 244
e 44 246
e 44 247
e 44 250
e 45 46
e 45 47
e 45 48
e 45 50
e 45 51
e 45 56
e 45 58
e 45 59
e 45 62
e 45 63
e 45 65
e 45 69
e 45 70
e 45 71
e 45 77
e 45 80
e 45 85
e 45 88
e 45 91
e 45 92
e 45 93
e 45 97
e 45 99
e 45 101
e 45 102
e 45 103
e 45 105
e 45 107
e 45 109
e 45 112
e 45 113
e 45 114
e 45 115
e 45 120
e 45 121
e 45 122
e 45 123
e 45 128
e 45 129
e 45 137
e 45 140
e 45 141
e 45 142
e 45 143
e 45 145
e 45 146
e 45 147
e 45 150
e 45 151
e 45 152
e 45 153
e 45 154
e 45 155
e 45 156
e 45 165
e 45 169
e 45 170
e 45 171
e 45 172
e 45 174
e 45 177
e 45 180
e 45 181
e 45 182
e 45 183
e 45 186
e 45 189
e 45 193
e 45 195
e 45 198
e 45 199
e 45 200
e 45 204
e 45 206
e 45 212
e 45 213
e 45 215
e 45 218
e 45 220
e 45 221
e 45 224
e 45 228
e 45 232
e 45 236
e 45 243
e 45 247
e 45 248
e 45 249
e 45 250
e 46 52
e 46 53
e 46 55
e 46 57
e 46 60
e 46 61
e 46 62
e 46 63
e 46 64
e 46 66
e 46 67
e 46 68
e 46 69
e 46 72
e 46 76
e 46 79
e 46 83
e 46 84
e 46 85
e 46 87
e 46 89
e 46 90
e 46 96
e 46 100
e 46 102
e 46 103
e 46 104
e 46 105
e 46 108
e 46 109
e 46 111
e 46 112
e 46 114
e 46 115
e 46 117
e 46 118
e 46 121
e 46 124
e 46 125
e 46 126
e 46 127
e 46 130
e 46 132
e 46 139
e 46 140
e 46 142
e 46 143
e 46 145
e 46 146
e 46 149
e 46 154
e 46 155
e 46 158
e 46 159
e 46 164
e 46 167
e 46 168
e 46 169
e 46 170
e 46 171
e 46 172
e 46 174
e 46 175
e 46 176
e 46 178
e 46 180
e 46 181
e 46 183
e 46 184
e 46 186
e 46 187
e 46 188
e 46 191
e 46 194
e 46 195
e 46 204
e 46 205
e 46 206
e 46 208
e 46 210
e 46 211
e 46 215
e 46 217
e 46 219
e 46 221
e 46 223
e 46 224
e 46 226
e 46 231
e 46 233
e 46 234
e 46 235
e 46 236
e 46 237
e 46 238
e 46 239
e 46 240
e 46 246
e 46 248
e 46 249
e 46 250
e 47 48
e 47 50
e 47 51
e 47 55
e 47 56
e 47 57
e 47 62
e 47 63
e 47 64
e 47 66
e 47 68
e 47 70
e 47 71
e 47 72
e 47 75
e 47 76
e 47 79
e 47 81
e 47 82
e 47 84
e 47 89
e 47 91
e 47 92
e 47 94
e 47 95
e 47 96
e 47 98
e 47 99
e 47 100
e 47 101
e 47 102
e 47 106
e 47 112
e 47 115
e 47 116
e 47 117
e 47 118
e 47 119
e 47 120
e 47 122
e 47 123
e 47 126
e 47 128
e 47 129
e 47 130
e 47 132
e 47 133
e 47 134
e 47 137
e 47 138
e 47 139
e 47 140
e 47 142
e 47 144
e 47 146
e 47 147
e 47 148
e 47 149
e 47 150
e 47 151
e 47 152
e 47 153
e 47 154
e 47 159
e 47 160
e 47 161
e 47 162
e 47 163
e 47 164
e 47 166
e 47 168
e 47 170
e 47 171
e 47 175
e 47 177
e 47 178
e 47 179
e 47 181
e 47 182
e 47 183
e 47 186
e 47 188
e 47 189
e 47 190
e 47 191
e 47 192
e 47 195
e 47 196
e 47 199
e 47 200
e 47 202
e 47 203
e 47 205
e 47 210
e 47 212
e 47 214
e 47 216
e 47 217
e 47 221
e 47 223
e 47 224
e 47 225
e 47 226
e 47 227
e 47 228
e 47 229
e 47 233
e 47 234
e 47 235
e 47 238
e 47 240
e 47 241
e 47 242
e 47 244
e 47 245
e 47 248
e 47 249
e 48 49
e 48 50
e 48 51
e 48 55
e 48 58
e 48 59
e 48 63
e 48 64
e 48 65
e 48 68
e 48 70
e 48 71
e 48 72
e 48 76
e 48 78
e 48 79
e 48 81
e 48 83
e 48 88
e 48 89
e 48 90
e 48 92
e 48 93
e 48 94
e 48 95
e 48 96
e 48 97
e 48 98
e 48 99
e 48 100
e 48 102
e 48 103
e 48 104
e 48 105
e 48 108
e 48 109
e 48 111
e 48 113
e 48 114
e 48 117
e 48 118
e 48 119
e 48 120
e 48 121
e 48 123
e 48 125
e 48 126
e 48 127
e 48 130
e 48 132
e 48 133
e 48 138
e 48 139
e 48 143
e 48 144
e 48 146
e 48 147
e 48 152
e 48 155
e 48 156
e 48 157
e 48 158
e 48 160
e 48 161
e 48 165
e 48 167
e 48 168
e 48 169
e 48 170
e 48 171
e 48 172
e 48 175
e 48 176
e 48 180
e 48 181
e 48 183
e 48 184
e 48 185
e 48 186
e 48 187
e 48 189
e 48 190
e 48 191
e 48 200
e 48 201
e 48 205
e 48 206
e 48 208
e 48 212
e 48 213
e 48 218
e 48 221
e 48 224
e 48 226
e 48 227
e 48 229
e 48 232
e 48 233
e 48 234
e 48 235
e 48 236
e 48 237
e 48 238
e 48 242
e 48 244
e 48 245
e 48 247
e 49 50
e 49 55
e 49 59
e 49 60
e 49 65
e 49 66
e 49 67
e 49 70
e 49 71
e 49 72
e 49 73
e 49 76
e 49 80
e 49 81
e 49 83
e 49 84
e 49 87
e 49 89
e 49 90
e 49 91
e 49 92
e 49 93
e 49 95
e 49 99
e 49 102
e 49 103
e 49 104
e 49 109
e 49 111
e 49 112
e 49 114
e 49 116
e 49 118
e 49 120
e 49 121
e 49 123
e 49 124
e 49 127
e 49 129
e 49 136
e 49 137
e 49 140
e 49 141
e 49 144
e 49 145
e 49 146
e 49 147
e 49 148
e 49 149
e 49 150
e 49 151
e 49 154
e 49 155
e 49 156
e 49 158
e 49 161
e 49 163
e 49 166
e 49 167
e 49 168
e 49 170
e 49 173
e 49 175
e 49 176
e 49 183
e 49 184
e 49 185
e 49 187
e 49 191
e 49 192
e 49 196
e 49 197
e 49 198
e 49 199
e 49 201
e 49 202
e 49 207
e 49 210
e 49 213
e 49 215
e 49 217
e 49 218
e 49 219
e 49 220
e 49 224
e 49 227
e 49 228
e 49 230
e 49 231
e 49 232
e 49 234
e 49 236
e 49 238
e 49 239
e 49 240
e 49 242
e 49 244
e 49 250
e 50 51
e 50 52
e 50 53
e 50 54
e 50 56
e 50 57
e 50 62
e 50 64
e 50 69
e 50 70
e 50 71
e 50 72
e 50 73
e 50 74
e 50 75
e 50 76
e 50 80
e 50 83
e 50 87
e 50 88
e 50 94
e 50 99
e 50 100
e 50 102
e 50 105
e 50 107
e 50 108
e 50 110
e 50 111
e 50 115
e 50 118
e 50 121
e 50 122
e 50 125
e 50 127
e 50 129
e 50 137
e 50 138
e 50 140
e 50 143
e 50 144
e 50 146
e 50 148
e 50 152
e 50 153
e 50 154
e 50 155
e 50 156
e 50 159
e 50 167
e 50 168
e 50 173
e 50 175
e 50 178
e 50 180
e 50 182
e 50 185
e 50 186
e 50 187
e 50 188
e 50 190
e 50 191
e 50 194
e 50 196
e 50 197
e 50 199
e 50 200
e 50 205
e 50 206
e 50 211
e 50 213
e 50 214
e 50 216
e 50 224
e 50 225
e 50 226
e 50 227
e 50 228
e 50 231
e 50 233
e 50 234
e 50 235
e 50 238
e 50 239
e 50 241
e 50 242
e 50 243
e 50 244
e 50 245
e 50 246
e 51 52
e 51 55
e 51 56
e 51 57
e 51 60
e 51 64
e 51 67
e 51 71
e 51 73
e 51 74
e 51 75
e 51 77
e 51 78
e 51 79
e 51 80
e 51 81
e 51 82
e 51 84
e 51 85
e 51 86
e 51 87
e 51 89
e 51 90
e 51 91
e 51 95
e 51 97
e 51 98
e 51 99
e 51 100
e 51 103
e 51 105
e 51 106
e 51 109
e 51 110
e 51 113
e 51 115
e 51 118
e 51 119
e 51 122
e 51 123
e 51 124
e 51 128
e 51 129
e 51 131
e 51 132
e 51 133
e 51 134
e 51 136
e 51 144
e 51 145
e 51 147
e 51 151
e 51 153
e 51 156
e 51 157
e 51 158
e 51 159
e 51 160
e 51 161
e 51 163
e 51 165
e 51 166
e 51 168
e 51 177
e 51 178
e 51 182
e 51 183
e 51 186
e 51 187
e 51 195
e 51 196
e 51 198
e 51 200
e 51 202
e 51 205
e 51 206
e 51 211
e 51 213
e 51 214
e 51 215
e 51 218
e 51 221
e 51 222
e 51 223
e 51 227
e 51 228
e 51 229
e 51 234
e 51 235
e 51 236
e 51 238
e 51 243
e 51 245
e 51 247
e 52 53
e 52 54
e 52 55
e 52 57
e 52 59
e 52 60
e 52 61
e 52 62
e 52 64
e 52 67
e 52 71
e 52 72
e 52 73
e 52 74
e 52 76
e 52 80
e 52 81
e 52 82
e 52 87
e 52 90
e 52 93
e 52 95
e 52 97
e 52 98
e 52 100
e 52 104
e 52 106
e 52 107
e 52 108
e 52 109
e 52 110
e 52 111
e 52 112
e 52 113
e 52 115
e 52 116
e 52 117
e 52 119
e 52 120
e 52 122
e 52 123
e 52 125
e 52 128
e 52 129
e 52 132
e 52 134
e 52 135
e 52 137
e 52 138
e 52 139
e 52 143
e 52 144
e 52 147
e 52 148
e 52 150
e 52 151
e 52 153
e 52 154
e 52 156
e 52 157
e 52 158
e 52 160
e 52 162
e 52 164
e 52 165
e 52 166
e 52 167
e 52 169
e 52 171
e 52 173
e 52 174
e 52 178
e 52 179
e 52 182
e 52 183
e 52 184
e 52 186
e 52 188
e 52 191
e 52 193
e 52 194
e 52 195
e 52 196
e 52 198
e 52 199
e 52 204
e 52 210
e 52 211
e 52 215
e 52 216
e 52 219
e 52 221
e 52 222
e 52 226
e 52 228
e 52 230
e 52 231
e 52 233
e 52 236
e 52 237
e 52 238
e 52 242
e 52 244
e 52 246
e 52 247
e 52 248
e 52 250
e 53 54
e 53 55
e 53 57
e 53 58
e 53 59
e 53 61
e 53 64
e 53 66
e 53 67
e 53 69
e 53 70
e 53 72
e 53 76
e 53 78
e 53 80
e 53 83
e 53 84
e 53 85
e 53 86
e 53 90
e 53 92
e 53 93
e 53 94
e 53 95
e 53 97
e 53 103
e 53 107
e 53 108
e 53 109
e 53 111
e 53 113
e 53 115
e 53 116
e 53 117
e 53 122
e 53 123
e 53 126
e 53 127
e 53 132
e 53 134
e 53 135
e 53 137
e 53 139
e 53 141
e 53 143
e 53 147
e 53 150
e 53 151
e 53 153
e 53 154
e 53 155
e 53 158
e 53 159
e 53 160
e 53 167
e 53 168
e 53 169
e 53 170
e 53 172
e 53 173
e 53 176
e 53 178
e 53 179
e 53 180
e 53 182
e 53 184
e 53 187
e 53 190
e 53 191
e 53 192
e 53 193
e 53 198
e 53 207
e 53 213
e 53 214
e 53 217
e 53 220
e 53 222
e 53 223
e 53 224
e 53 225
e 53 227
e 53 228
e 53 230
e 53 231
e 53 232
e 53 236
e 53 238
e 53 240
e 53 242
e 53 243
e 53 249
e 54 55
e 54 57
e 54 60
e 54 61
e 54 64
e 54 67
e 54 68
e 54 69
e 54 71
e 54 72
e 54 75
e 54 76
e 54 77
e 54 78
e 54 80
e 54 81
e 54 83
e 54 85
e 54 86
e 54 87
e 54 88
e 54 90
e 54 93
e 54 94
e 54 95
e 54 96
e 54 97
e 54 99
e 54 103
e 54 110
e 54 113
e 54 118
e 54 120
e 54 121
e 54 122
e 54 123
e 54 128
e 54 129
e 54 131
e 54 132
e 54 136
e 54 137
e 54 140
e 54 141
e 54 144
e 54 145
e 54 146
e 54 153
e 54 155
e 54 156
e 54 158
e 54 163
e 54 164
e 54 166
e 54 173
e 54 175
e 54 176
e 54 177
e 54 179
e 54 181
e 54 191
e 54 195
e 54 196
e 54 197
e 54 199
e 54 200
e 54 202
e 54 203
e 54 204
e 54 205
e 54 206
e 54 207
e 54 210
e 54 211
e 54 212
e 54 214
e 54 216
e 54 217
e 54 222
e 54 223
e 54 227
e 54 232
e 54 233
e 54 236
e 54 237
e 54 238
e 54 239
e 54 240
e 54 241
e 54 242
e 54 243
e 54 246
e 54 247
e 55 56
e 55 57
e 55 58
e 55 59
e 55 65
e 55 66
e 55 68
e 55 69
e 55 72
e 55 73
e 55 75
e 55 76
e 55 78
e 55 81
e 55 84
e 55 87
e 55 89
e 55 91
e 55 93
e 55 97
e 55 99
e 55 100
e 55 102
e 55 103
e 55 105
e 55 106
e 55 107
e 55 108
e 55 111
e 55 113
e 55 115
e 55 116
e 55 117
e 55 119
e 55 120
e 55 121
e 55 122
e 55 124
e 55 125
e 55 127
e 55 128
e 55 129
e 55 131
e 55 132
e 55 133
e 55 134
e 55 138
e 55 142
e 55 143
e 55 144
e 55 145
e 55 147
e 55 149
e 55 152
e 55 159
e 55 160
e 55 163
e 55 167
e 55 169
e 55 171
e 55 172
e 55 173
e 55 174
e 55 175
e 55 176
e 55 178
e 55 179
e 55 181
e 55 183
e 55 184
e 55 186
e 55 190
e 55 191
e 55 200
e 55 201
e 55 202
e 55 203
e 55 204
e 55 206
e 55 207
e 55 210
e 55 211
e 55 220
e 55 223
e 55 225
e 55 227
e 55 229
e 55 231
e 55 232
e 55 233
e 55 238
e 55 240
e 55 242
e 55 245
e 55 247
e 55 250
e 56 57
e 56 58
e 56 59
e 56 63
e 56 64
e 56 65
e 56 66
e 56 67
e 56 70
e 56 71
e 56 73
e 56 74
e 56 75
e 56 80
e 56 84
e 56 87
e 56 88
e 56 91
e 56 93
e 56 95
e 56 96
e 56 97
e 56 99
e 56 100
e 56 102
e 56 104
e 56 106
e 56 107
e 56 108
e 56 109
e 56 115
e 56 117
e 56 118
e 56 124
e 56 125
e 56 127
e 56 129
e 56 133
e 56 136
e 56 137
e 56 138
e 56 139
e 56 144
e 56 145
e 56 147
e 56 148
e 56 149
e 56 152
e 56 154
e 56 155
e 56 156
e 56 157
e 56 158
e 56 159
e 56 160
e 56 163
e 56 164
e 56 167
e 56 168
e 56 170
e 56 174
e 56 175
e 56 176
e 56 178
e 56 179
e 56 181
e 56 182
e 56 184
e 56 185
e 56 186
e 56 188
e 56 190
e 56 192
e 56 193
e 56 200
e 56 201
e 56 202
e 56 205
e 56 208
e 56 209
e 56 211
e 56 212
e 56 217
e 56 218
e 56 220
e 56 221
e 56 222
e 56 227
e 56 230
e 56 231
e 56 232
e 56 236
e 56 237
e 56 239
e 56 240
e 56 243
e 56 244
e 56 245
e 56 246
e 56 248
e 56 249
e 56 250
e 57 59
e 57 60
e 57 62
e 57 67
e 57 68
e 57 69
e 57 73
e 57 77
e 57 78
e 57 80
e 57 83
e 57 84
e 57 85
e 57 86
e 57 88
e 57 90
e 57 93
e 57 95
e 57 96
e 57 97
e 57 98
e 57 100
e 57 101
e 57 102
e 57 103
e 57 105
e 57 107
e 57 108
e 57 110
e 57 113
e 57 114
e 57 117
e 57 120
e 57 122
e 57 124
e 57 125
e 57 126
e 57 127
e 57 128
e 57 131
e 57 132
e 57 133
e 57 134
e 57 135
e 57 140
e 57 141
e 57 142
e 57 143
e 57 144
e 57 145
e 57 146
e 57 147
e 57 148
e 57 149
e 57 151
e 57 153
e 57 154
e 57 156
e 57 158
e 57 159
e 57 164
e 57 165
e 57 168
e 57 172
e 57 173
e 57 174
e 57 175
e 57 179
e 57 180
e 57 182
e 57 183
e 57 184
e 57 185
e 57 186
e 57 187
e 57 189
e 57 194
e 57 197
e 57 199
e 57 200
e 57 201
e 57 203
e 57 205
e 57 209
e 57 210
e 57 211
e 57 214
e 57 215
e 57 216
e 57 218
e 57 220
e 57 221
e 57 228
e 57 230
e 57 233
e 57 235
e 57 236
e 57 237
e 57 239
e 57 243
e 57 244
e 57 245
e 57 246
e 57 250
e 58 62
e 58 64
e 58 65
e 58 68
e 58 69
e 58 71
e 58 72
e 58 75
e 58 78
e 58 79
e 58 80
e 58 81
e 58 87
e 58 88
e 58 89
e 58 90
e 58 91
e 58 92
e 58 93
e 58 95
e 58 97
e 58 99
e 58 103
e 58 107
e 58 109
e 58 112
e 58 119
e 58 120
e 58 122
e 58 124
e 58 125
e 58 128
e 58 130
e 58 131
e 58 133
e 58 136
e 58 138
e 58 139
e 58 140
e 58 141
e 58 145
e 58 146
e 58 148
e 58 151
e 58 154
e 58 155
e 58 158
e 58 159
e 58 162
e 58 164
e 58 165
e 58 166
e 58 168
e 58 169
e 58 170
e 58 172
e 58 173
e 58 174
e 58 175
e 58 176
e 58 179
e 58 180
e 58 181
e 58 185
e 58 188
e 58 194
e 58 198
e 58 201
e 58 203
e 58 204
e 58 205
e 58 208
e 58 209
e 58 210
e 58 214
e 58 216
e 58 217
e 58 219
e 58 221
e 58 222
e 58 223
e 58 226
e 58 228
e 58 229
e 58 230
e 58 232
e 58 233
e 58 235
e 58 236
e 58 237
e 58 239
e 58 240
e 58 241
e 58 246
e 58 249
e 59 61
e 59 63
e 59 65
e 59 68
e 59 70
e 59 72
e 59 73
e 59 74
e 59 76
e 59 77
e 59 78
e 59 79
e 59 82
e 59 84
e 59 85
e 59 86
e 59 87
e 59 88
e 59 89
e 59 91
e 59 92
e 59 93
e 59 95
e 59 102
e 59 104
e 59 105
e 59 107
e 59 108
e 59 109
e 59 115
e 59 123
e 59 128
e 59 129
e 59 130
e 59 132
e 59 135
e 59 137
e 59 140
e 59 144
e 59 145
e 59 147
e 59 148
e 59 150
e 59 152
e 59 154
e 59 155
e 59 157
e 59 158
e 59 159
e 59 161
e 59 162
e 59 163
e 59 164
e 59 166
e 59 168
e 59 170
e 59 171
e 59 172
e 59 174
e 59 176
e 59 177
e 59 178
e 59 179
e 59 182
e 59 183
e 59 185
e 59 186
e 59 187
e 59 188
e 59 190
e 59 191
e 59 193
e 59 196
e 59 197
e 59 198
e 59 200
e 59 203
e 59 204
e 59 206
e 59 208
e 59 209
e 59 210
e 59 213
e 59 214
e 59 215
e 59 218
e 59 219
e 59 220
e 59 225
e 59 229
e 59 230
e 59 233
e 59 236
e 59 237
e 59 238
e 59 239
e 59 243
e 59 245
e 59 250
e 60 62
e 60 63
e 60 67
e 60 68
e 60 69
e 60 73
e 60 74
e 60 75
e 60 78
e 60 79
e 60 87
e 60 89
e 60 92
e 60 95
e 60 96
e 60 97
e 60 98
e 60 99
e 60 100
e 60 102
e 60 103
e 60 105
e 60 107
e 60 109
e 60 110
e 60 112
e 60 113
e 60 114
e 60 115
e 60 121
e 60 122
e 60 123
e 60 124
e 60 125
e 60 126
e 60 128
e 60 129
e 60 130
e 60 132
e 60 140
e 60 142
e 60 143
e 60 144
e 60 146
e 60 147
e 60 148
e 60 149
e 60 150
e 60 151
e 60 153
e 60 156
e 60 157
e 60 159
e 60 160
e 60 162
e 60 163
e 60 164
e 60 166
e 60 167
e 60 168
e 60 169
e 60 175
e 60 176
e 60 177
e 60 179
e 60 181
e 60 182
e 60 186
e 60 187
e 60 189
e 60 190
e 60 192
e 60 194
e 60 195
e 60 196
e 60 198
e 60 199
e 60 201
e 60 204
e 60 209
e 60 210
e 60 212
e 60 213
e 60 214
e 60 215
e 60 216
e 60 218
e 60 221
e 60 224
e 60 225
e 60 227
e 60 230
e 60 233
e 60 234
e 60 236
e 60 238
e 60 239
e 60 244
e 60 245
e 60 246
e 60 247
e 60 248
e 60 249
e 61 64
e 61 66
e 61 67
e 61 69
e 61 72
e 61 76
e 61 78
e 61 79
e 61 80
e 61 81
e 61 83
e 61 84
e 61 86
e 61 89
e 61 93
e 61 96
e 61 97
e 61 100
e 61 102
e 61 103
e 61 104
e 61 105
e 61 107
e 61 111
e 61 115
e 61 116
e 61 117
e 61 118
e 61 119
e 61 120
e 61 121
e 61 127
e 61 130
e 61 132
e 61 133
e 61 134
e 61 135
e 61 136
e 61 137
e 61 143
e 61 145
e 61 146
e 61 147
e 61 148
e 61 149
e 61 151
e 61 153
e 61 155
e 61 156
e 61 159
e 61 160
e 61 162
e 61 164
e 61 166
e 61 167
e 61 168
e 61 169
e 61 171
e 61 176
e 61 178
e 61 179
e 61 180
e 61 181
e 61 184
e 61 185
e 61 188
e 61 189
e 61 190
e 61 191
e 61 193
e 61 196
e 61 198
e 61 199
e 61 201
e 61 206
e 61 209
e 61 217
e 61 218
e 61 219
e 61 221
e 61 222
e 61 225
e 61 226
e 61 230
e 61 232
e 61 233
e 61 236
e 61 240
e 61 243
e 61 245
e 62 63
e 62 64
e 62 65
e 62 68
e 62 70
e 62 71
e 62 72
e 62 74
e 62 76
e 62 78
e 62 80
e 62 82
e 62 84
e 62 85
e 62 87
e 62 89
e 62 94
e 62 95
e 62 100
e 62 101
e 62 103
e 62 105
e 62 106
e 62 107
e 62 110
e 62 111
e 62 113
e 62 115
e 62 118
e 62 126
e 62 127
e 62 128
e 62 131
e 62 134
e 62 135
e 62 139
e 62 140
e 62 141
e 62 143
e 62 144
e 62 147
e 62 148
e 62 150
e 62 151
e 62 153
e 62 154
e 62 155
e 62 156
e 62 157
e 62 159
e 62 160
e 62 161
e 62 163
e 62 164
e 62 166
e 62 169
e 62 173
e 62 174
e 62 175
e 62 179
e 62 182
e 62 185
e 62 186
e 62 187
e 62 190
e 62 191
e 62 192
e 62 195
e 62 197
e 62 199
e 62 202
e 62 203
e 62 204
e 62 205
e 62 206
e 62 209
e 62 217
e 62 218
e 62 220
e 62 221
e 62 224
e 62 225
e 62 228
e 62 230
e 62 232
e 62 234
e 62 235
e 62 239
e 62 240
e 62 241
e 62 243
e 62 245
e 62 246
e 62 247
e 62 248
e 62 249
e 63 69
e 63 71
e 63 72
e 63 73
e 63 75
e 63 77
e 63 79
e 63 81
e 63 82
e 63 83
e 63 85
e 63 88
e 63 89
e 63 93
e 63 96
e 63 97
e 63 98
e 63 99
e 63 100
e 63 101
e 63 103
e 63 105
e 63 108
e 63 109
e 63 112
e 63 113
e 63 114
e 63 117
e 63 118
e 63 120
e 63 121
e 63 124
e 63 128
e 63 130
e 63 131
e 63 132
e 63 135
e 63 136
e 63 138
e 63 139
e 63 142
e 63 144
e 63 145
e 63 149
e 63 151
e 63 153
e 63 154
e 63 157
e 63 158
e 63 159
e 63 166
e 63 169
e 63 172
e 63 175
e 63 178
e 63 179
e 63 180
e 63 182
e 63 187
e 63 191
e 63 193
e 63 195
e 63 196
e 63 200
e 63 203
e 63 207
e 63 208
e 63 209
e 63 210
e 63 211
e 63 216
e 63 218
e 63 223
e 63 224
e 63 230
e 63 232
e 63 234
e 63 235
e 63 236
e 63 240
e 63 241
e 63 242
e 63 244
e 63 245
e 63 246
e 63 248
e 63 249
e 63 250
e 64 65
e 64 66
e 64 67
e 64 68
e 64 69
e 64 72
e 64 74
e 64 76
e 64 78
e 64 79
e 64 81
e 64 82
e 64 83
e 64 84
e 64 86
e 64 87
e 64 91
e 64 96
e 64 104
e 64 105
e 64 106
e 64 107
e 64 109
e 64 110
e 64 111
e 64 112
e 64 113
e 64 120
e 64 121
e 64 124
e 64 125
e 64 129
e 64 130
e 64 131
e 64 133
e 64 135
e 64 136
e 64 138
e 64 139
e 64 142
e 64 143
e 64 145
e 64 148
e 64 150
e 64 154
e 64 156
e 64 157
e 64 158
e 64 160
e 64 161
e 64 164
e 64 165
e 64 167
e 64 169
e 64 170
e 64 173
e 64 176
e 64 180
e 64 181
e 64 186
e 64 189
e 64 190
e 64 191
e 64 195
e 64 196
e 64 197
e 64 198
e 64 204
e 64 205
e 64 210
e 64 211
e 64 212
e 64 213
e 64 214
e 64 216
e 64 217
e 64 221
e 64 223
e 64 225
e 64 228
e 64 229
e 64 230
e 64 233
e 64 235
e 64 238
e 64 239
e 64 240
e 64 241
e 64 242
e 64 245
e 64 246
e 64 248
e 64 250
e 65 66
e 65 68
e 65 69
e 65 70
e 65 72
e 65 74
e 65 75
e 65 77
e 65 80
e 65 81
e 65 82
e 65 84
e 65 86
e 65 87
e 65 89
e 65 90
e 65 91
e 65 96
e 65 97
e 65 98
e 65 100
e 65 101
e 65 102
e 65 105
e 65 106
e 65 107
e 65 110
e 65 111
e 65 112
e 65 113
e 65 115
e 65 119
e 65 120
e 65 125
e 65 126
e 65 129
e 65 130
e 65 132
e 65 134
e 65 135
e 65 137
e 65 138
e 65 139
e 65 140
e 65 141
e 65 142
e 65 143
e 65 145
e 65 146
e 65 147
e 65 149
e 65 151
e 65 152
e 65 154
e 65 157
e 65 158
e 65 164
e 65 165
e 65 166
e 65 167
e 65 168
e 65 169
e 65 170
e 65 171
e 65 173
e 65 174
e 65 176
e 65 180
e 65 182
e 65 183
e 65 186
e 65 188
e 65 189
e 65 191
e 65 196
e 65 198
e 65 202
e 65 203
e 65 204
e 65 205
e 65 206
e 65 209
e 65 210
e 65 211
e 65 212
e 65 214
e 65 218
e 65 219
e 65 221
e 65 222
e 65 226
e 65 228
e 65 229
e 65 230
e 65 232
e 65 237
e 65 238
e 65 239
e 65 240
e 65 243
e 65 244
e 65 246
e 65 249
e 66 67
e 66 68
e 66 69
e 66 74
e 66 75
e 66 76
e 66 77
e 66 79
e 66 80
e 66 84
e 66 87
e 66 88
e 66 92
e 66 93
e 66 94
e 66 96
e 66 97
e 66 99
e 66 101
e 66 105
e 66 106
e 66 107
e 66 108
e 66 109
e 66 114
e 66 115
e 66 117
e 66 121
e 66 122
e 66 123
e 66 124
e 66 125
e 66 126
e 66 127
e 66 130
e 66 131
e 66 132
e 66 134
e 66 135
e 66 136
e 66 137
e 66 138
e 66 139
e 66 140
e 66 141
e 66 142
e 66 143
e 66 145
e 66 149
e 66 150
e 66 153
e 66 154
e 66 155
e 66 156
e 66 161
e 66 162
e 66 163
e 66 164
e 66 165
e 66 167
e 66 170
e 66 171
e 66 172
e 66 178
e 66 181
e 66 182
e 66 185
e 66 187
e 66 188
e 66 189
e 66 193
e 66 198
e 66 199
e 66 202
e 66 203
e 66 207
e 66 212
e 66 217
e 66 219
e 66 222
e 66 225
e 66 226
e 66 227
e 66 228
e 66 229
e 66 235
e 66 238
e 66 239
e 66 240
e 66 242
e 66 244
e 66 245
e 66 248
e 66 249
e 67 70
e 67 71
e 67 72
e 67 73
e 67 74
e 67 75
e 67 76
e 67 78
e 67 79
e 67 81
e 67 82
e 67 83
e 67 84
e 67 85
e 67 88
e 67 91
e 67 93
e 67 94
e 67 95
e 67 96
e 67 97
e 67 100
e 67 101
e 67 104
e 67 106
e 67 107
e 67 108
e 67 109
e 67 110
e 67 115
e 67 116
e 67 117
e 67 118
e 67 121
e 67 122
e 67 123
e 67 126
e 67 130
e 67 131
e 67 134
e 67 136
e 67 139
e 67 140
e 67 142
e 67 143
e 67 146
e 67 148
e 67 149
e 67 150
e 67 152
e 67 153
e 67 155
e 67 164
e 67 167
e 67 169
e 67 174
e 67 175
e 67 178
e 67 180
e 67 182
e 67 185
e 67 186
e 67 189
e 67 190
e 67 192
e 67 193
e 67 197
e 67 198
e 67 201
e 67 203
e 67 205
e 67 206
e 67 208
e 67 209
e 67 210
e 67 211
e 67 214
e 67 216
e 67 220
e 67 221
e 67 222
e 67 223
e 67 225
e 67 226
e 67 227
e 67 228
e 67 230
e 67 231
e 67 232
e 67 234
e 67 235
e 67 236
e 67 239
e 67 241
e 67 242
e 67 248
e 67 250
e 68 69
e 68 72
e 68 74
e 68 75
e 68 76
e 68 78
e 68 80
e 68 82
e 68 84
e 68 85
e 68 90
e 68 93
e 68 98
e 68 100
e 68 101
e 68 102
e 68 103
e 68 104
e 68 105
e 68 107
e 68 108
e 68 109
e 68 111
e 68 113
e 68 115
e 68 116
e 68 117
e 68 118
e 68 121
e 68 122
e 68 123
e 68 126
e 68 127
e 68 128
e 68 132
e 68 135
e 68 141
e 68 144
e 68 147
e 68 149
e 68 150
e 68 152
e 68 157
e 68 159
e 68 161
e 68 163
e 68 164
e 68 167
e 68 169
e 68 171
e 68 182
e 68 187
e 68 188
e 68 190
e 68 192
e 68 193
e 68 194
e 68 195
e 68 198
e 68 199
e 68 200
e 68 202
e 68 207
e 68 208
e 68 210
e 68 211
e 68 212
e 68 216
e 68 217
e 68 219
e 68 221
e 68 223
e 68 225
e 68 227
e 68 231
e 68 236
e 68 239
e 68 241
e 68 243
e 68 244
e 68 246
e 68 249
e 68 250
e 69 70
e 69 71
e 69 72
e 69 74
e 69 75
e 69 76
e 69 77
e 69 78
e 69 81
e 69 83
e 69 85
e 69 86
e 69 88
e 69 90
e 69 92
e 69 94
e 69 103
e 69 104
e 69 107
e 69 113
e 69 114
e 69 115
e 69 118
e 69 119
e 69 120
e 69 122
e 69 123
e 69 125
e 69 128
e 69 129
e 69 130
e 69 131
e 69 133
e 69 138
e 69 140
e 69 141
e 69 142
e 69 146
e 69 148
e 69 149
e 69 150
e 69 152
e 69 153
e 69 154
e 69 155
e 69 157
e 69 158
e 69 161
e 69 165
e 69 170
e 69 171
e 69 179
e 69 181
e 69 182
e 69 183
e 69 184
e 69 186
e 69 190
e 69 191
e 69 193
e 69 194
e 69 196
e 69 198
e 69 200
e 69 201
e 69 208
e 69 212
e 69 213
e 69 218
e 69 219
e 69 223
e 69 224
e 69 229
e 69 231
e 69 232
e 69 233
e 69 235
e 69 237
e 69 239
e 69 240
e 69 241
e 69 244
e 69 245
e 69 247
e 69 249
e 69 250
e 70 71
e 70 75
e 70 76
e 70 78
e 70 79
e 70 80
e 70 87
e 70 88
e 70 89
e 70 90
e 70 92
e 70 93
e 70 96
e 70 99
e 70 102
e 70 103
e 70 104
e 70 105
e 70 107
e 70 111
e 70 112
e 70 113
e 70 114
e 70 115
e 70 116
e 70 118
e 70 120
e 70 121
e 70 122
e 70 124
e 70 126
e 70 127
e 70 134
e 70 135
e 70 139
e 70 145
e 70 146
e 70 147
e 70 148
e 70 150
e 70 151
e 70 152
e 70 153
e 70 154
e 70 163
e 70 168
e 70 170
e 70 174
e 70 176
e 70 177
e 70 178
e 70 179
e 70 180
e 70 181
e 70 183
e 70 185
e 70 186
e 70 189
e 70 191
e 70 192
e 70 193
e 70 194
e 70 195
e 70 196
e 70 198
e 70 199
e 70 201
e 70 202
e 70 203
e 70 205
e 70 207
e 70 212
e 70 213
e 70 217
e 70 218
e 70 219
e 70 220
e 70 222
e 70 225
e 70 226
e 70 228
e 70 230
e 70 231
e 70 232
e 70 233
e 70 234
e 70 235
e 70 236
e 70 238
e 70 240
e 70 243
e 70 244
e 70 247
e 70 250
e 71 72
e 71 73
e 71 74
e 71 75
e 71 76
e 71 78
e 71 82
e 71 84
e 71 92
e 71 93
e 71 94
e 71 96
e 71 97
e 71 98
e 71 99
e 71 102
e 71 103
e 71 106
e 71 110
e 71 111
e 71 113
e 71 115
e 71 116
e 71 117
e 71 119
e 71 125
e 71 127
e 71 131
e 71 132
e 71 135
e 71 137
e 71 139
e 71 142
e 71 143
e 71 144
e 71 145
e 71 146
e 71 148
e 71 156
e 71 157
e 71 159
e 71 160
e 71 161
e 71 162
e 71 163
e 71 164
e 71 165
e 71 166
e 71 167
e 71 168
e 71 169
e 71 170
e 71 172
e 71 173
e 71 176
e 71 177
e 71 178
e 71 182
e 71 183
e 71 184
e 71 185
e 71 186
e 71 188
e 71 189
e 71 190
e 71 191
e 71 192
e 71 193
e 71 197
e 71 198
e 71 199
e 71 200
e 71 202
e 71 204
e 71 205
e 71 207
e 71 208
e 71 209
e 71 210
e 71 212
e 71 214
e 71 219
e 71 220
e 71 223
e 71 224
e 71 226
e 71 227
e 71 228
e 71 229
e 71 234
e 71 235
e 71 236
e 71 240
e 71 243
e 71 249
e 72 73
e 72 74
e 72 75
e 72 76
e 72 80
e 72 81
e 72 82
e 72 84
e 72 85
e 72 87
e 72 92
e 72 94
e 72 102
e 72 104
e 72 106
e 72 108
e 72 109
e 72 110
e 72 112
e 72 113
e 72 114
e 72 116
e 72 117
e 72 118
e 72 122
e 72 124
e 72 125
e 72 135
e 72 137
e 72 138
e 72 149
e 72 151
e 72 152
e 72 154
e 72 155
e 72 157
e 72 162
e 72 164
e 72 170
e 72 174
e 72 176
e 72 179
e 72 180
e 72 181
e 72 183
e 72 184
e 72 188
e 72 189
e 72 195
e 72 199
e 72 200
e 72 203
e 72 212
e 72 213
e 72 214
e 72 215
e 72 219
e 72 220
e 72 221
e 72 222
e 72 223
e 72 227
e 72 228
e 72 229
e 72 231
e 72 233
e 72 234
e 72 235
e 72 237
e 72 239
e 72 245
e 72 247
e 72 249
e 72 250
e 73 74
e 73 76
e 73 77
e 73 78
e 73 83
e 73 84
e 73 86
e 73 90
e 73 91
e 73 93
e 73 95
e 73 97
e 73 100
e 73 102
e 73 104
e 73 105
e 73 106
e 73 110
e 73 111
e 73 112
e 73 113
e 73 116
e 73 117
e 73 118
e 73 120
e 73 121
e 73 122
e 73 123
e 73 126
e 73 127
e 73 128
e 73 131
e 73 135
e 73 138
e 73 140
e 73 142
e 73 144
e 73 147
e 73 150
e 73 152
e 73 158
e 73 160
e 73 161
e 73 162
e 73 163
e 73 165
e 73 167
e 73 169
e 73 171
e 73 174
e 73 175
e 73 176
e 73 177
e 73 178
e 73 182
e 73 183
e 73 184
e 73 185
e 73 187
e 73 189
e 73 190
e 73 191
e 73 192
e 73 195
e 73 196
e 73 197
e 73 199
e 73 201
e 73 206
e 73 207
e 73 208
e 73 209
e 73 210
e 73 211
e 73 212
e 73 213
e 73 214
e 73 215
e 73 216
e 73 219
e 73 223
e 73 224
e 73 226
e 73 227
e 73 231
e 73 232
e 73 233
e 73 234
e 73 236
e 73 237
e 73 239
e 73 240
e 73 241
e 73 243
e 73 245
e 73 247
e 73 250
e 74 75
e 74 78
e 74 81
e 74 82
e 74 83
e 74 84
e 74 85
e 74 86
e 74 88
e 74 90
e 74 91
e 74 95
e 74 96
e 74 97
e 74 99
e 74 104
e 74 108
e 74 114
e 74 116
e 74 117
e 74 118
e 74 119
e 74 120
e 74 121
e 74 122
e 74 127
e 74 128
e 74 129
e 74 131
e 74 133
e 74 134
e 74 135
e 74 137
e 74 138
e 74 139
e 74 140
e 74 142
e 74 143
e 74 145
e 74 147
e 74 150
e 74 151
e 74 152
e 74 153
e 74 156
e 74 157
e 74 159
e 74 160
e 74 162
e 74 164
e 74 167
e 74 169
e 74 174
e 74 178
e 74 179
e 74 180
e 74 182
e 74 183
e 74 184
e 74 187
e 74 189
e 74 190
e 74 191
e 74 193
e 74 195
e 74 197
e 74 202
e 74 204
e 74 210
e 74 211
e 74 213
e 74 214
e 74 215
e 74 217
e 74 220
e 74 221
e 74 222
e 74 228
e 74 229
e 74 232
e 74 238
e 74 239
e 74 243
e 74 244
e 74 245
e 74 247
e 74 250
e 75 76
e 75 77
e 75 80
e 75 81
e 75 82
e 75 83
e 75 84
e 75 85
e 75 86
e 75 87
e 75 90
e 75 91
e 75 93
e 75 94
e 75 95
e 75 96
e 75 98
e 75 99
e 75 100
e 75 101
e 75 104
e 75 106
e 75 108
e 75 110
e 75 111
e 75 112
e 75 114
e 75 116
e 75 119
e 75 122
e 75 124
e 75 125
e 75 126
e 75 130
e 75 131
e 75 132
e 75 135
e 75 138
e 75 139
e 75 140
e 75 141
e 75 143
e 75 144
e 75 145
e 75 148
e 75 151
e 75 152
e 75 153
e 75 154
e 75 155
e 75 156
e 75 157
e 75 159
e 75 160
e 75 165
e 75 166
e 75 170
e 75 171
e 75 176
e 75 177
e 75 180
e 75 181
e 75 182
e 75 186
e 75 187
e 75 189
e 75 192
e 75 193
e 75 196
e 75 199
e 75 201
e 75 203
e 75 205
e 75 206
e 75 208
e 75 209
e 75 211
e 75 212
e 75 213
e 75 215
e 75 216
e 75 219
e 75 220
e 75 221
e 75 222
e 75 225
e 75 227
e 75 228
e 75 229
e 75 230
e 75 232
e 75 234
e 75 243
e 75 244
e 75 245
e 75 248
e 75 249
e 76 77
e 76 78
e 76 80
e 76 81
e 76 83
e 76 84
e 76 90
e 76 91
e 76 93
e 76 94
e 76 95
e 76 97
e 76 98
e 76 100
e 76 101
e 76 102
e 76 105
e 76 106
e 76 109
e 76 110
e 76 112
e 76 114
e 76 115
e 76 116
e 76 117
e 76 118
e 76 121
e 76 127
e 76 130
e 76 131
e 76 132
e 76 133
e 76 134
e 76 135
e 76 136
e 76 138
e 76 139
e 76 141
e 76 145
e 76 146
e 76 148
e 76 149
e 76 150
e 76 154
e 76 156
e 76 159
e 76 160
e 76 161
e 76 162
e 76 165
e 76 166
e 76 167
e 76 169
e 76 170
e 76 172
e 76 173
e 76 174
e 76 175
e 76 176
e 76 177
e 76 178
e 76 180
e 76 182
e 76 184
e 76 185
e 76 186
e 76 187
e 76 189
e 76 193
e 76 197
e 76 201
e 76 204
e 76 208
e 76 210
e 76 211
e 76 218
e 76 220
e 76 221
e 76 223
e 76 226
e 76 231
e 76 232
e 76 237
e 76 239
e 76 240
e 76 241
e 76 244
e 76 246
e 76 248
e 76 249
e 76 250
e 77 79
e 77 82
e 77 84
e 77 85
e 77 86
e 77 87
e 77 95
e 77 98
e 77 99
e 77 101
e 77 103
e 77 105
e 77 106
e 77 107
e 77 109
e 77 110
e 77 113
e 77 114
e 77 115
e 77 116
e 77 117
e 77 121
e 77 122
e 77 123
e 77 125
e 77 126
e 77 127
e 77 129
e 77 130
e 77 131
e 77 132
e 77 133
e 77 135
e 77 137
e 77 138
e 77 139
e 77 141
e 77 142
e 77 143
e 77 145
e 77 149
e 77 152
e 77 156
e 77 161
e 77 162
e 77 163
e 77 164
e 77 166
e 77 170
e 77 171
e 77 175
e 77 176
e 77 178
e 77 179
e 77 181
e 77 182
e 77 184
e 77 186
e 77 187
e 77 188
e 77 190
e 77 191
e 77 196
e 77 197
e 77 199
e 77 200
e 77 201
e 77 202
e 77 204
e 77 205
e 77 206
e 77 208
e 77 209
e 77 214
e 77 216
e 77 217
e 77 218
e 77 223
e 77 224
e 77 225
e 77 227
e 77 233
e 77 237
e 77 239
e 77 242
e 77 250
e 78 79
e 78 80
e 78 81
e 78 84
e 78 85
e 78 87
e 78 89
e 78 92
e 78 93
e 78 96
e 78 97
e 78 99
e 78 100
e 78 101
e 78 104
e 78 106
e 78 107
e 78 108
e 78 109
e 78 111
e 78 112
e 78 113
e 78 114
e 78 115
e 78 117
e 78 119
e 78 120
e 78 121
e 78 122
e 78 124
e 78 125
e 78 126
e 78 127
e 78 128
e 78 131
e 78 132
e 78 133
e 78 136
e 78 141
e 78 142
e 78 143
e 78 146
e 78 148
e 78 153
e 78 154
e 78 162
e 78 163
e 78 165
e 78 169
e 78 170
e 78 171
e 78 179
e 78 181
e 78 185
e 78 186
e 78 187
e 78 190
e 78 191
e 78 192
e 78 193
e 78 194
e 78 200
e 78 201
e 78 202
e 78 206
e 78 207
e 78 208
e 78 209
e 78 210
e 78 212
e 78 213
e 78 214
e 78 215
e 78 216
e 78 217
e 78 218
e 78 221
e 78 222
e 78 223
e 78 226
e 78 228
e 78 229
e 78 230
e 78 233
e 78 236
e 78 238
e 78 241
e 78 245
e 78 249
e 79 83
e 79 84
e 79 87
e 79 91
e 79 93
e 79 94
e 79 96
e 79 98
e 79 100
e 79 101
e 79 102
e 79 104
e 79 107
e 79 108
e 79 111
e 79 113
e 79 114
e 79 115
e 79 116
e 79 118
e 79 119
e 79 124
e 79 125
e 79 126
e 79 127
e 79 130
e 79 134
e 79 135
e 79 137
e 79 139
e 79 140
e 79 141
e 79 143
e 79 144
e 79 145
e 79 146
e 79 147
e 79 149
e 79 154
e 79 156
e 79 157
e 79 158
e 79 159
e 79 161
e 79 162
e 79 164
e 79 165
e 79 168
e 79 170
e 79 174
e 79 175
e 79 176
e 79 178
e 79 185
e 79 186
e 79 188
e 79 189
e 79 190
e 79 191
e 79 194
e 79 195
e 79 196
e 79 197
e 79 198
e 79 199
e 79 204
e 79 207
e 79 210
e 79 213
e 79 221
e 79 223
e 79 227
e 79 228
e 79 230
e 79 236
e 79 238
e 79 242
e 79 247
e 79 248
e 79 249
e 79 250
e 80 81
e 80 82
e 80 83
e 80 85
e 80 88
e 80 90
e 80 94
e 80 96
e 80 98
e 80 99
e 80 100
e 80 104
e 80 105
e 80 106
e 80 108
e 80 111
e 80 112
e 80 114
e 80 115
e 80 116
e 80 117
e 80 118
e 80 122
e 80 123
e 80 125
e 80 128
e 80 129
e 80 132
e 80 134
e 80 135
e 80 136
e 80 139
e 80 141
e 80 143
e 80 149
e 80 150
e 80 152
e 80 155
e 80 158
e 80 159
e 80 163
e 80 164
e 80 165
e 80 166
e 80 167
e 80 168
e 80 169
e 80 170
e 80 172
e 80 175
e 80 182
e 80 186
e 80 188
e 80 193
e 80 194
e 80 196
e 80 197
e 80 199
e 80 201
e 80 205
e 80 206
e 80 211
e 80 213
e 80 214
e 80 216
e 80 217
e 80 219
e 80 225
e 80 229
e 80 230
e 80 231
e 80 234
e 80 235
e 80 236
e 80 238
e 80 239
e 80 242
e 80 246
e 80 250
e 81 83
e 81 85
e 81 88
e 81 89
e 81 90
e 81 94
e 81 96
e 81 97
e 81 98
e 81 104
e 81 107
e 81 111
e 81 114
e 81 117
e 81 119
e 81 120
e 81 121
e 81 123
e 81 125
e 81 127
e 81 129
e 81 131
e 81 132
e 81 134
e 81 135
e 81 136
e 81 139
e 81 140
e 81 142
e 81 143
e 81 145
e 81 146
e 81 147
e 81 152
e 81 153
e 81 154
e 81 155
e 81 156
e 81 157
e 81 158
e 81 159
e 81 160
e 81 161
e 81 165
e 81 167
e 81 172
e 81 173
e 81 175
e 81 176
e 81 177
e 81 178
e 81 179
e 81 187
e 81 190
e 81 191
e 81 194
e 81 195
e 81 198
e 81 199
e 81 200
e 81 205
e 81 208
e 81 209
e 81 212
e 81 214
e 81 215
e 81 216
e 81 219
e 81 220
e 81 221
e 81 222
e 81 223
e 81 224
e 81 225
e 81 226
e 81 227
e 81 228
e 81 230
e 81 231
e 81 233
e 81 234
e 81 235
e 81 236
e 81 237
e 81 238
e 81 239
e 81 240
e 81 242
e 81 243
e 81 247
e 81 248
e 81 250
e 82 84
e 82 85
e 82 86
e 82 87
e 82 91
e 82 92
e 82 94
e 82 96
e 82 98
e 82 99
e 82 100
e 82 106
e 82 108
e 82 109
e 82 110
e 82 112
e 82 115
e 82 120
e 82 121
e 82 122
e 82 123
e 82 124
e 82 127
e 82 128
e 82 129
e 82 132
e 82 133
e 82 134
e 82 139
e 82 142
e 82 147
e 82 148
e 82 150
e 82 151
e 82 152
e 82 156
e 82 157
e 82 160
e 82 162
e 82 164
e 82 165
e 82 168
e 82 169
e 82 171
e 82 176
e 82 178
e 82 179
e 82 180
e 82 182
e 82 184
e 82 186
e 82 187
e 82 189
e 82 190
e 82 192
e 82 193
e 82 195
e 82 197
e 82 198
e 82 199
e 82 200
e 82 202
e 82 203
e 82 204
e 82 205
e 82 206
e 82 207
e 82 208
e 82 209
e 82 210
e 82 211
e 82 214
e 82 215
e 82 216
e 82 219
e 82 222
e 82 223
e 82 224
e 82 226
e 82 227
e 82 228
e 82 229
e 82 230
e 82 231
e 82 232
e 82 233
e 82 235
e 82 238
e 82 239
e 82 241
e 82 243
e 82 247
e 82 248
e 82 249
e 82 250
e 83 84
e 83 85
e 83 87
e 83 88
e 83 89
e 83 91
e 83 92
e 83 93
e 83 95
e 83 96
e 83 97
e 83 100
e 83 104
e 83 107
e 83 112
e 83 114
e 83 115
e 83 116
e 83 118
e 83 119
e 83 120
e 83 123
e 83 124
e 83 126
e 83 128
e 83 129
e 83 130
e 83 131
e 83 132
e 83 133
e 83 134
e 83 135
e 83 136
e 83 137
e 83 138
e 83 140
e 83 142
e 83 143
e 83 144
e 83 145
e 83 146
e 83 147
e 83 148
e 83 150
e 83 151
e 83 152
e 83 155
e 83 156
e 83 157
e 83 161
e 83 164
e 83 165
e 83 166
e 83 170
e 83 171
e 83 176
e 83 180
e 83 182
e 83 187
e 83 191
e 83 195
e 83 198
e 83 200
e 83 203
e 83 204
e 83 205
e 83 206
e 83 207
e 83 208
e 83 211
e 83 212
e 83 213
e 83 216
e 83 218
e 83 219
e 83 221
e 83 222
e 83 223
e 83 224
e 83 226
e 83 228
e 83 231
e 83 234
e 83 235
e 83 236
e 83 240
e 83 241
e 83 243
e 83 245
e 83 246
e 83 248
e 83 249
e 83 250
e 84 85
e 84 86
e 84 87
e 84 89
e 84 90
e 84 93
e 84 96
e 84 97
e 84 99
e 84 102
e 84 103
e 84 105
e 84 106
e 84 108
e 84 109
e 84 110
e 84 115
e 84 116
e 84 118
e 84 120
e 84 122
e 84 124
e 84 126
e 84 127
e 84 128
e 84 129
e 84 132
e 84 134
e 84 135
e 84 137
e 84 138
e 84 139
e 84 140
e 84 141
e 84 144
e 84 145
e 84 148
e 84 151
e 84 153
e 84 155
e 84 159
e 84 162
e 84 164
e 84 170
e 84 171
e 84 174
e 84 175
e 84 176
e 84 177
e 84 178
e 84 180
e 84 182
e 84 183
e 84 185
e 84 188
e 84 192
e 84 193
e 84 195
e 84 196
e 84 197
e 84 198
e 84 199
e 84 200
e 84 203
e 84 205
e 84 206
e 84 207
e 84 209
e 84 211
e 84 212
e 84 213
e 84 216
e 84 218
e 84 220
e 84 223
e 84 224
e 84 225
e 84 229
e 84 231
e 84 233
e 84 234
e 84 235
e 84 237
e 84 238
e 84 239
e 84 240
e 84 241
e 84 244
e 84 246
e 84 247
e 84 250
e 85 86
e 85 88
e 85 89
e 85 90
e 85 91
e 85 92
e 85 94
e 85 96
e 85 97
e 85 98
e 85 103
e 85 105
e 85 106
e 85 108
e 85 109
e 85 111
e 85 113
e 85 114
e 85 115
e 85 117
e 85 118
e 85 120
e 85 121
e 85 122
e 85 124
e 85 126
e 85 127
e 85 128
e 85 129
e 85 132
e 85 133
e 85 136
e 85 137
e 85 139
e 85 140
e 85 141
e 85 143
e 85 144
e 85 145
e 85 146
e 85 149
e 85 153
e 85 155
e 85 157
e 85 158
e 85 159
e 85 161
e 85 163
e 85 164
e 85 166
e 85 167
e 85 168
e 85 172
e 85 173
e 85 174
e 85 177
e 85 178
e 85 180
e 85 186
e 85 187
e 85 189
e 85 190
e 85 191
e 85 192
e 85 193
e 85 198
e 85 199
e 85 200
e 85 201
e 85 202
e 85 207
e 85 208
e 85 209
e 85 210
e 85 211
e 85 212
e 85 214
e 85 216
e 85 218
e 85 219
e 85 220
e 85 223
e 85 224
e 85 225
e 85 227
e 85 228
e 85 230
e 85 231
e 85 234
e 85 237
e 85 238
e 85 242
e 85 243
e 85 244
e 85 245
e 85 249
e 86 88
e 86 89
e 86 90
e 86 91
e 86 95
e 86 96
e 86 98
e 86 99
e 86 101
e 86 105
e 86 106
e 86 107
e 86 108
e 86 110
e 86 112
e 86 113
e 86 115
e 86 116
e 86 118
e 86 120
e 86 127
e 86 130
e 86 131
e 86 132
e 86 134
e 86 137
e 86 138
e 86 139
e 86 140
e 86 142
e 86 146
e 86 148
e 86 149
e 86 150
e 86 151
e 86 153
e 86 154
e 86 155
e 86 160
e 86 161
e 86 162
e 86 163
e 86 164
e 86 168
e 86 170
e 86 171
e 86 176
e 86 177
e 86 178
e 86 180
e 86 181
e 86 182
e 86 184
e 86 189
e 86 193
e 86 194
e 86 196
e 86 198
e 86 200
e 86 202
e 86 204
e 86 205
e 86 211
e 86 213
e 86 214
e 86 216
e 86 217
e 86 219
e 86 222
e 86 224
e 86 226
e 86 228
e 86 230
e 86 232
e 86 234
e 86 235
e 86 236
e 86 237
e 86 239
e 86 242
e 86 243
e 86 245
e 86 247
e 86 248
e 86 250
e 87 88
e 87 90
e 87 91
e 87 93
e 87 94
e 87 95
e 87 96
e 87 102
e 87 105
e 87 106
e 87 108
e 87 110
e 87 113
e 87 114
e 87 118
e 87 120
e 87 121
e 87 122
e 87 128
e 87 129
e 87 130
e 87 131
e 87 132
e 87 137
e 87 140
e 87 141
e 87 142
e 87 143
e 87 144
e 87 145
e 87 146
e 87 148
e 87 149
e 87 151
e 87 152
e 87 154
e 87 155
e 87 157
e 87 158
e 87 159
e 87 162
e 87 164
e 87 165
e 87 166
e 87 172
e 87 173
e 87 176
e 87 177
e 87 179
e 87 180
e 87 181
e 87 183
e 87 184
e 87 188
e 87 190
e 87 192
e 87 193
e 87 197
e 87 198
e 87 199
e 87 200
e 87 201
e 87 206
e 87 207
e 87 208
e 87 210
e 87 211
e 87 215
e 87 219
e 87 221
e 87 223
e 87 225
e 87 227
e 87 230
e 87 231
e 87 233
e 87 234
e 87 236
e 87 237
e 87 238
e 87 239
e 87 240
e 87 241
e 87 242
e 87 243
e 87 244
e 87 245
e 87 248
e 88 89
e 88 91
e 88 92
e 88 93
e 88 94
e 88 96
e 88 97
e 88 99
e 88 101
e 88 103
e 88 106
e 88 108
e 88 109
e 88 111
e 88 112
e 88 113
e 88 114
e 88 119
e 88 121
e 88 125
e 88 126
e 88 127
e 88 128
e 88 130
e 88 131
e 88 134
e 88 135
e 88 141
e 88 148
e 88 149
e 88 151
e 88 157
e 88 158
e 88 159
e 88 163
e 88 167
e 88 169
e 88 170
e 88 171
e 88 173
e 88 175
e 88 176
e 88 177
e 88 178
e 88 180
e 88 184
e 88 185
e 88 191
e 88 192
e 88 199
e 88 200
e 88 202
e 88 204
e 88 205
e 88 207
e 88 209
e 88 210
e 88 214
e 88 219
e 88 221
e 88 223
e 88 224
e 88 225
e 88 227
e 88 231
e 88 232
e 88 233
e 88 234
e 88 238
e 88 240
e 88 241
e 88 242
e 88 243
e 88 247
e 88 248
e 88 250
e 89 90
e 89 91
e 89 92
e 89 93
e 89 94
e 89 95
e 89 96
e 89 97
e 89 98
e 89 99
e 89 100
e 89 101
e 89 104
e 89 105
e 89 106
e 89 110
e 89 111
e 89 113
e 89 118
e 89 119
e 89 121
e 89 123
e 89 124
e 89 129
e 89 130
e 89 132
e 89 135
e 89 136
e 89 137
e 89 138
e 89 144
e 89 145
e 89 146
e 89 147
e 89 148
e 89 151
e 89 155
e 89 158
e 89 162
e 89 168
e 89 170
e 89 174
e 89 176
e 89 178
e 89 179
e 89 180
e 89 182
e 89 183
e 89 189
e 89 191
e 89 193
e 89 194
e 89 196
e 89 198
e 89 201
e 89 202
e 89 210
e 89 211
e 89 214
e 89 215
e 89 216
e 89 218
e 89 219
e 89 220
e 89 222
e 89 224
e 89 225
e 89 226
e 89 228
e 89 229
e 89 231
e 89 233
e 89 234
e 89 235
e 89 238
e 89 240
e 89 241
e 89 242
e 89 244
e 89 246
e 89 247
e 89 248
e 89 250
e 90 91
e 90 93
e 90 94
e 90 95
e 90 97
e 90 98
e 90 99
e 90 101
e 90 105
e 90 106
e 90 107
e 90 108
e 90 109
e 90 110
e 90 112
e 90 113
e 90 114
e 90 115
e 90 116
e 90 121
e 90 123
e 90 124
e 90 125
e 90 126
e 90 129
e 90 130
e 90 131
e 90 136
e 90 137
e 90 139
e 90 141
e 90 142
e 90 146
e 90 149
e 90 154
e 90 157
e 90 160
e 90 162
e 90 164
e 90 166
e 90 167
e 90 169
e 90 170
e 90 171
e 90 172
e 90 173
e 90 175
e 90 176
e 90 178
e 90 181
e 90 183
e 90 184
e 90 186
e 90 188
e 90 189
e 90 192
e 90 193
e 90 194
e 90 196
e 90 198
e 90 199
e 90 200
e 90 201
e 90 202
e 90 203
e 90 207
e 90 208
e 90 209
e 90 210
e 90 211
e 90 218
e 90 221
e 90 226
e 90 227
e 90 228
e 90 229
e 90 230
e 90 233
e 90 235
e 90 236
e 90 237
e 90 240
e 90 242
e 90 243
e 90 244
e 90 245
e 90 247
e 90 249
e 91 93
e 91 94
e 91 98
e 91 99
e 91 100
e 91 102
e 91 104
e 91 105
e 91 106
e 91 107
e 91 108
e 91 109
e 91 110
e 91 111
e 91 113
e 91 116
e 91 117
e 91 118
e 91 119
e 91 120
e 91 121
e 91 125
e 91 126
e 91 128
e 91 129
e 91 130
e 91 131
e 91 135
e 91 139
e 91 140
e 91 142
e 91 143
e 91 145
e 91 146
e 91 147
e 91 153
e 91 154
e 91 155
e 91 159
e 91 161
e 91 167
e 91 169
e 91 170
e 91 171
e 91 173
e 91 174
e 91 175
e 91 178
e 91 179
e 91 180
e 91 181
e 91 184
e 91 188
e 91 189
e 91 190
e 91 191
e 91 192
e 91 194
e 91 196
e 91 198
e 91 202
e 91 204
e 91 206
e 91 207
e 91 208
e 91 211
e 91 212
e 91 213
e 91 214
e 91 215
e 91 217
e 91 218
e 91 219
e 91 223
e 91 224
e 91 226
e 91 230
e 91 232
e 91 239
e 91 240
e 91 241
e 91 244
e 91 245
e 91 246
e 91 249
e 92 95
e 92 99
e 92 101
e 92 102
e 92 103
e 92 104
e 92 105
e 92 107
e 92 108
e 92 110
e 92 114
e 92 115
e 92 118
e 92 121
e 92 124
e 92 127
e 92 131
e 92 136
e 92 137
e 92 139
e 92 144
e 92 148
e 92 150
e 92 151
e 92 152
e 92 154
e 92 155
e 92 157
e 92 158
e 92 160
e 92 161
e 92 162
e 92 165
e 92 166
e 92 168
e 92 169
e 92 171
e 92 172
e 92 173
e 92 178
e 92 179
e 92 180
e 92 182
e 92 186
e 92 187
e 92 188
e 92 189
e 92 191
e 92 194
e 92 195
e 92 196
e 92 197
e 92 200
e 92 201
e 92 202
e 92 203
e 92 205
e 92 207
e 92 208
e 92 209
e 92 210
e 92 211
e 92 212
e 92 220
e 92 223
e 92 225
e 92 226
e 92 228
e 92 229
e 92 230
e 92 231
e 92 232
e 92 234
e 92 235
e 92 236
e 92 239
e 92 240
e 92 243
e 92 246
e 92 250
e 93 98
e 93 99
e 93 105
e 93 110
e 93 111
e 93 112
e 93 114
e 93 115
e 93 116
e 93 118
e 93 121
e 93 122
e 93 126
e 93 127
e 93 128
e 93 129
e 93 131
e 93 132
e 93 134
e 93 136
e 93 137
e 93 138
e 93 143
e 93 145
e 93 150
e 93 157
e 93 161
e 93 165
e 93 167
e 93 168
e 93 176
e 93 177
e 93 179
e 93 181
e 93 182
e 93 184
e 93 185
e 93 189
e 93 191
e 93 192
e 93 199
e 93 200
e 93 201
e 93 202
e 93 205
e 93 206
e 93 207
e 93 209
e 93 210
e 93 212
e 93 213
e 93 215
e 93 217
e 93 219
e 93 221
e 93 222
e 93 223
e 93 224
e 93 226
e 93 228
e 93 229
e 93 230
e 93 231
e 93 233
e 93 236
e 93 238
e 93 239
e 93 240
e 93 241
e 93 243
e 93 247
e 93 250
e 94 95
e 94 97
e 94 101
e 94 102
e 94 103
e 94 105
e 94 108
e 94 109
e 94 110
e 94 111
e 94 113
e 94 116
e 94 117
e 94 118
e 94 122
e 94 123
e 94 124
e 94 126
e 94 128
e 94 130
e 94 134
e 94 137
e 94 141
e 94 142
e 94 144
e 94 145
e 94 146
e 94 151
e 94 154
e 94 156
e 94 159
e 94 160
e 94 161
e 94 162
e 94 163
e 94 167
e 94 168
e 94 169
e 94 170
e 94 172
e 94 175
e 94 177
e 94 178
e 94 179
e 94 180
e 94 181
e 94 183
e 94 187
e 94 188
e 94 189
e 94 191
e 94 196
e 94 198
e 94 199
e 94 202
e 94 203
e 94 206
e 94 209
e 94 212
e 94 213
e 94 214
e 94 215
e 94 216
e 94 218
e 94 220
e 94 222
e 94 223
e 94 225
e 94 230
e 94 233
e 94 234
e 94 235
e 94 236
e 94 237
e 94 243
e 94 245
e 94 247
e 94 248
e 94 250
e 95 97
e 95 98
e 95 101
e 95 104
e 95 105
e 95 107
e 95 108
e 95 110
e 95 112
e 95 113
e 95 114
e 95 116
e 95 117
e 95 120
e 95 122
e 95 123
e 95 124
e 95 125
e 95 130
e 95 131
e 95 137
e 95 138
e 95 143
e 95 144
e 95 145
e 95 150
e 95 153
e 95 159
e 95 162
e 95 163
e 95 164
e 95 165
e 95 167
e 95 169
e 95 170
e 95 171
e 95 173
e 95 175
e 95 177
e 95 178
e 95 181
e 95 184
e 95 187
e 95 193
e 95 199
e 95 200
e 95 201
e 95 205
e 95 207
e 95 208
e 95 210
e 95 214
e 95 216
e 95 217
e 95 218
e 95 219
e 95 220
e 95 224
e 95 226
e 95 229
e 95 230
e 95 234
e 95 236
e 95 237
e 95 238
e 95 241
e 95 242
e 95 244
e 95 245
e 95 246
e 95 247
e 95 250
e 96 98
e 96 99
e 96 102
e 96 106
e 96 108
e 96 109
e 96 110
e 96 112
e 96 118
e 96 119
e 96 121
e 96 123
e 96 126
e 96 129
e 96 132
e 96 139
e 96 142
e 96 143
e 96 144
e 96 145
e 96 146
e 96 148
e 96 151
e 96 152
e 96 153
e 96 154
e 96 155
e 96 158
e 96 159
e 96 160
e 96 161
e 96 164
e 96 165
e 96 167
e 96 168
e 96 169
e 96 172
e 96 173
e 96 181
e 96 182
e 96 184
e 96 185
e 96 192
e 96 193
e 96 197
e 96 198
e 96 199
e 96 200
e 96 204
e 96 207
e 96 212
e 96 213
e 96 214
e 96 215
e 96 217
e 96 219
e 96 221
e 96 222
e 96 224
e 96 226
e 96 227
e 96 231
e 96 232
e 96 234
e 96 235
e 96 239
e 96 240
e 96 241
e 96 242
e 96 243
e 96 244
e 97 98
e 97 101
e 97 102
e 97 103
e 97 105
e 97 107
e 97 109
e 97 110
e 97 111
e 97 113
e 97 114
e 97 117
e 97 118
e 97 120
e 97 122
e 97 124
e 97 126
e 97 128
e 97 131
e 97 132
e 97 133
e 97 135
e 97 137
e 97 139
e 97 143
e 97 145
e 97 146
e 97 151
e 97 152
e 97 157
e 97 158
e 97 161
e 97 162
e 97 164
e 97 167
e 97 168
e 97 170
e 97 171
e 97 174
e 97 175
e 97 177
e 97 178
e 97 189
e 97 191
e 97 192
e 97 197
e 97 199
e 97 203
e 97 207
e 97 208
e 97 209
e 97 211
e 97 213
e 97 214
e 97 218
e 97 222
e 97 223
e 97 225
e 97 227
e 97 228
e 97 229
e 97 231
e 97 232
e 97 233
e 97 234
e 97 235
e 97 236
e 97 244
e 97 245
e 97 246
e 97 248
e 98 100
e 98 101
e 98 106
e 98 107
e 98 109
e 98 112
e 98 113
e 98 114
e 98 116
e 98 117
e 98 118
e 98 123
e 98 124
e 98 126
e 98 128
e 98 131
e 98 133
e 98 134
e 98 136
e 98 139
e 98 140
e 98 141
e 98 142
e 98 143
e 98 147
e 98 151
e 98 152
e 98 153
e 98 155
e 98 156
e 98 157
e 98 158
e 98 160
e 98 164
e 98 165
e 98 166
e 98 167
e 98 168
e 98 170
e 98 172
e 98 173
e 98 177
e 98 178
e 98 180
e 98 182
e 98 184
e 98 185
e 98 186
e 98 190
e 98 192
e 98 194
e 98 195
e 98 196
e 98 198
e 98 200
e 98 202
e 98 204
e 98 205
e 98 206
e 98 210
e 98 213
e 98 214
e 98 216
e 98 218
e 98 220
e 98 221
e 98 222
e 98 223
e 98 224
e 98 226
e 98 227
e 98 230
e 98 231
e 98 232
e 98 234
e 98 235
e 98 236
e 98 237
e 98 238
e 98 240
e 98 241
e 98 242
e 98 243
e 98 244
e 98 247
e 98 248
e 99 103
e 99 105
e 99 106
e 99 107
e 99 111
e 99 112
e 99 113
e 99 117
e 99 118
e 99 120
e 99 121
e 99 122
e 99 123
e 99 124
e 99 125
e 99 127
e 99 128
e 99 131
e 99 135
e 99 137
e 99 139
e 99 142
e 99 143
e 99 144
e 99 145
e 99 146
e 99 152
e 99 154
e 99 157
e 99 159
e 99 162
e 99 163
e 99 165
e 99 166
e 99 167
e 99 168
e 99 169
e 99 171
e 99 172
e 99 174
e 99 177
e 99 179
e 99 181
e 99 182
e 99 183
e 99 184
e 99 186
e 99 188
e 99 190
e 99 191
e 99 194
e 99 195
e 99 196
e 99 200
e 99 201
e 99 205
e 99 211
e 99 213
e 99 214
e 99 215
e 99 216
e 99 218
e 99 219
e 99 220
e 99 221
e 99 222
e 99 223
e 99 224
e 99 227
e 99 228
e 99 230
e 99 235
e 99 236
e 99 237
e 99 238
e 99 241
e 99 244
e 99 245
e 99 246
e 99 247
e 99 248
e 99 249
e 100 101
e 100 103
e 100 108
e 100 109
e 100 110
e 100 112
e 100 113
e 100 114
e 100 116
e 100 119
e 100 121
e 100 124
e 100 128
e 100 130
e 100 133
e 100 136
e 100 143
e 100 145
e 100 146
e 100 149
e 100 153
e 100 154
e 100 156
e 100 158
e 100 159
e 100 162
e 100 165
e 100 166
e 100 169
e 100 171
e 100 172
e 100 173
e 100 177
e 100 179
e 100 180
e 100 182
e 100 183
e 100 187
e 100 191
e 100 193
e 100 194
e 100 196
e 100 198
e 100 199
e 100 202
e 100 210
e 100 214
e 100 216
e 100 217
e 100 221
e 100 223
e 100 225
e 100 227
e 100 233
e 100 234
e 100 235
e 100 236
e 100 237
e 100 239
e 100 240
e 100 246
e 100 248
e 101 102
e 101 105
e 101 107
e 101 108
e 101 109
e 101 111
e 101 113
e 101 114
e 101 115
e 101 116
e 101 117
e 101 118
e 101 119
e 101 120
e 101 122
e 101 123
e 101 124
e 101 125
e 101 128
e 101 129
e 101 133
e 101 134
e 101 144
e 101 145
e 101 147
e 101 149
e 101 151
e 101 152
e 101 153
e 101 154
e 101 156
e 101 157
e 101 158
e 101 159
e 101 160
e 101 164
e 101 169
e 101 170
e 101 172
e 101 174
e 101 175
e 101 180
e 101 182
e 101 183
e 101 184
e 101 185
e 101 186
e 101 190
e 101 191
e 101 193
e 101 194
e 101 195
e 101 199
e 101 200
e 101 201
e 101 203
e 101 204
e 101 207
e 101 208
e 101 210
e 101 211
e 101 213
e 101 218
e 101 219
e 101 220
e 101 221
e 101 222
e 101 224
e 101 227
e 101 231
e 101 233
e 101 236
e 101 237
e 101 239
e 101 241
e 101 242
e 101 246
e 101 248
e 101 250
e 102 103
e 102 104
e 102 106
e 102 107
e 102 109
e 102 110
e 102 113
e 102 114
e 102 115
e 102 116
e 102 118
e 102 119
e 102 120
e 102 121
e 102 122
e 102 123
e 102 124
e 102 128
e 102 129
e 102 130
e 102 132
e 102 136
e 102 138
e 102 139
e 102 140
e 102 141
e 102 142
e 102 144
e 102 146
e 102 147
e 102 148
e 102 150
e 102 152
e 102 153
e 102 158
e 102 159
e 102 160
e 102 167
e 102 168
e 102 169
e 102 170
e 102 172
e 102 173
e 102 174
e 102 175
e 102 176
e 102 177
e 102 179
e 102 180
e 102 181
e 102 185
e 102 186
e 102 188
e 102 192
e 102 193
e 102 196
e 102 197
e 102 198
e 102 199
e 102 201
e 102 202
e 102 204
e 102 209
e 102 210
e 102 213
e 102 214
e 102 215
e 102 216
e 102 218
e 102 219
e 102 220
e 102 222
e 102 223
e 102 224
e 102 225
e 102 227
e 102 228
e 102 229
e 102 230
e 102 231
e 102 232
e 102 235
e 102 239
e 102 241
e 102 242
e 102 246
e 102 248
e 102 250
e 103 104
e 103 105
e 103 109
e 103 112
e 103 114
e 103 115
e 103 120
e 103 121
e 103 122
e 103 123
e 103 125
e 103 126
e 103 127
e 103 130
e 103 131
e 103 132
e 103 133
e 103 135
e 103 137
e 103 138
e 103 139
e 103 140
e 103 142
e 103 144
e 103 147
e 103 149
e 103 154
e 103 157
e 103 158
e 103 159
e 103 165
e 103 166
e 103 169
e 103 174
e 103 176
e 103 177
e 103 179
e 103 181
e 103 185
e 103 187
e 103 189
e 103 193
e 103 195
e 103 196
e 103 198
e 103 200
e 103 203
e 103 204
e 103 205
e 103 207
e 103 208
e 103 209
e 103 210
e 103 211
e 103 212
e 103 213
e 103 216
e 103 217
e 103 218
e 103 219
e 103 220
e 103 221
e 103 223
e 103 224
e 103 225
e 103 228
e 103 230
e 103 231
e 103 234
e 103 236
e 103 237
e 103 238
e 103 241
e 103 243
e 103 244
e 103 245
e 103 247
e 103 248
e 103 249
e 104 107
e 104 109
e 104 110
e 104 111
e 104 112
e 104 113
e 104 114
e 104 115
e 104 116
e 104 117
e 104 118
e 104 123
e 104 124
e 104 127
e 104 128
e 104 129
e 104 131
e 104 134
e 104 135
e 104 137
e 104 140
e 104 141
e 104 143
e 104 144
e 104 145
e 104 146
e 104 147
e 104 151
e 104 154
e 104 155
e 104 156
e 104 157
e 104 159
e 104 164
e 104 165
e 104 167
e 104 170
e 104 171
e 104 172
e 104 175
e 104 176
e 104 177
e 104 180
e 104 183
e 104 184
e 104 186
e 104 187
e 104 189
e 104 192
e 104 193
e 104 196
e 104 199
e 104 200
e 104 203
e 104 204
e 104 206
e 104 209
e 104 210
e 104 212
e 104 214
e 104 216
e 104 220
e 104 221
e 104 225
e 104 226
e 104 228
e 104 232
e 104 233
e 104 234
e 104 237
e 104 239
e 104 240
e 104 243
e 104 245
e 104 246
e 104 247
e 104 248
e 104 250
e 105 106
e 105 108
e 105 112
e 105 113
e 105 115
e 105 116
e 105 118
e 105 120
e 105 121
e 105 124
e 105 126
e 105 131
e 105 135
e 105 136
e 105 139
e 105 142
e 105 143
e 105 145
e 105 147
e 105 150
e 105 153
e 105 154
e 105 155
e 105 156
e 105 159
e 105 161
e 105 163
e 105 168
e 105 169
e 105 170
e 105 171
e 105 172
e 105 174
e 105 175
e 105 176
e 105 178
e 105 179
e 105 181
e 105 182
e 105 183
e 105 187
e 105 191
e 105 194
e 105 196
e 105 198
e 105 202
e 105 205
e 105 207
e 105 210
e 105 212
e 105 213
e 105 217
e 105 219
e 105 223
e 105 224
e 105 225
e 105 226
e 105 228
e 105 229
e 105 230
e 105 231
e 105 232
e 105 233
e 105 234
e 105 235
e 105 238
e 105 239
e 105 241
e 105 243
e 105 250
e 106 109
e 106 110
e 106 112
e 106 115
e 106 117
e 106 118
e 106 119
e 106 120
e 106 124
e 106 125
e 106 126
e 106 127
e 106 130
e 106 131
e 106 132
e 106 134
e 106 135
e 106 137
e 106 138
e 106 139
e 106 142
e 106 143
e 106 145
e 106 146
e 106 147
e 106 148
e 106 151
e 106 153
e 106 154
e 106 162
e 106 163
e 106 166
e 106 167
e 106 168
e 106 172
e 106 173
e 106 175
e 106 176
e 106 177
e 106 179
e 106 180
e 106 181
e 106 187
e 106 188
e 106 192
e 106 194
e 106 195
e 106 197
e 106 199
e 106 201
e 106 205
e 106 207
e 106 208
e 106 209
e 106 210
e 106 212
e 106 213
e 106 215
e 106 220
e 106 221
e 106 222
e 106 223
e 106 225
e 106 226
e 106 228
e 106 229
e 106 233
e 106 234
e 106 235
e 106 237
e 106 239
e 106 243
e 106 245
e 107 108
e 107 110
e 107 112
e 107 113
e 107 124
e 107 128
e 107 129
e 107 131
e 107 133
e 107 134
e 107 136
e 107 137
e 107 144
e 107 145
e 107 148
e 107 150
e 107 155
e 107 157
e 107 158
e 107 159
e 107 160
e 107 161
e 107 162
e 107 164
e 107 165
e 107 166
e 107 167
e 107 168
e 107 170
e 107 172
e 107 174
e 107 175
e 107 176
e 107 179
e 107 182
e 107 184
e 107 186
e 107 189
e 107 190
e 107 195
e 107 196
e 107 198
e 107 199
e 107 201
e 107 202
e 107 203
e 107 208
e 107 210
e 107 211
e 107 214
e 107 217
e 107 220
e 107 221
e 107 224
e 107 228
e 107 229
e 107 231
e 107 232
e 107 233
e 107 234
e 107 236
e 107 237
e 107 238
e 107 242
e 107 246
e 107 248
e 107 250
e 108 111
e 108 112
e 108 114
e 108 115
e 108 116
e 108 118
e 108 122
e 108 126
e 108 127
e 108 131
e 108 132
e 108 133
e 108 134
e 108 136
e 108 137
e 108 138
e 108 142
e 108 143
e 108 149
e 108 150
e 108 151
e 108 152
e 108 155
e 108 156
e 108 157
e 108 158
e 108 159
e 108 162
e 108 163
e 108 166
e 108 167
e 108 169
e 108 171
e 108 173
e 108 176
e 108 177
e 108 181
e 108 186
e 108 187
e 108 188
e 108 192
e 108 195
e 108 196
e 108 197
e 108 201
e 108 202
e 108 204
e 108 206
e 108 207
e 108 211
e 108 212
e 108 214
e 108 215
e 108 216
e 108 217
e 108 218
e 108 219
e 108 220
e 108 221
e 108 222
e 108 223
e 108 230
e 108 236
e 108 237
e 108 238
e 108 240
e 108 242
e 108 244
e 108 246
e 108 248
e 109 110
e 109 111
e 109 112
e 109 116
e 109 119
e 109 121
e 109 122
e 109 123
e 109 124
e 109 126
e 109 127
e 109 134
e 109 135
e 109 136
e 109 137
e 109 140
e 109 142
e 109 143
e 109 145
e 109 146
e 109 148
e 109 149
e 109 151
e 109 154
e 109 157
e 109 158
e 109 159
e 109 163
e 109 165
e 109 166
e 109 167
e 109 168
e 109 170
e 109 171
e 109 172
e 109 176
e 109 178
e 109 179
e 109 182
e 109 183
e 109 184
e 109 185
e 109 189
e 109 191
e 109 192
e 109 195
e 109 196
e 109 197
e 109 200
e 109 201
e 109 202
e 109 204
e 109 209
e 109 210
e 109 211
e 109 217
e 109 219
e 109 220
e 109 222
e 109 224
e 109 226
e 109 228
e 109 229
e 109 230
e 109 231
e 109 233
e 109 234
e 109 239
e 109 243
e 109 244
e 109 245
e 109 247
e 109 248
e 109 250
e 110 112
e 110 115
e 110 122
e 110 124
e 110 126
e 110 127
e 110 129
e 110 132
e 110 133
e 110 134
e 110 135
e 110 136
e 110 145
e 110 148
e 110 150
e 110 152
e 110 153
e 110 154
e 110 156
e 110 158
e 110 161
e 110 162
e 110 163
e 110 166
e 110 168
e 110 170
e 110 174
e 110 175
e 110 177
e 110 178
e 110 180
e 110 181
e 110 185
e 110 187
e 110 188
e 110 189
e 110 190
e 110 191
e 110 192
e 110 194
e 110 198
e 110 199
e 110 200
e 110 201
e 110 202
e 110 203
e 110 204
e 110 205
e 110 206
e 110 208
e 110 210
e 110 211
e 110 212
e 110 213
e 110 215
e 110 216
e 110 218
e 110 219
e 110 220
e 110 221
e 110 223
e 110 225
e 110 226
e 110 227
e 110 230
e 110 232
e 110 233
e 110 236
e 110 237
e 110 238
e 110 241
e 110 242
e 110 243
e 110 246
e 110 247
e 110 249
e 110 250
e 111 112
e 111 113
e 111 114
e 111 117
e 111 118
e 111 122
e 111 124
e 111 125
e 111 126
e 111 127
e 111 128
e 111 129
e 111 130
e 111 132
e 111 134
e 111 137
e 111 143
e 111 145
e 111 146
e 111 148
e 111 150
e 111 151
e 111 155
e 111 157
e 111 158
e 111 162
e 111 163
e 111 165
e 111 168
e 111 170
e 111 172
e 111 174
e 111 177
e 111 178
e 111 181
e 111 183
e 111 185
e 111 187
e 111 189
e 111 193
e 111 195
e 111 198
e 111 200
e 111 202
e 111 203
e 111 206
e 111 211
e 111 213
e 111 216
e 111 217
e 111 218
e 111 223
e 111 225
e 111 226
e 111 231
e 111 235
e 111 236
e 111 237
e 111 241
e 111 245
e 111 249
e 112 114
e 112 115
e 112 116
e 112 117
e 112 118
e 112 119
e 112 121
e 112 123
e 112 124
e 112 126
e 112 127
e 112 128
e 112 131
e 112 132
e 112 139
e 112 140
e 112 144
e 112 147
e 112 149
e 112 153
e 112 154
e 112 155
e 112 158
e 112 159
e 112 160
e 112 161
e 112 162
e 112 163
e 112 164
e 112 165
e 112 169
e 112 170
e 112 172
e 112 173
e 112 174
e 112 175
e 112 176
e 112 177
e 112 178
e 112 179
e 112 182
e 112 184
e 112 186
e 112 187
e 112 189
e 112 191
e 112 193
e 112 194
e 112 195
e 112 196
e 112 199
e 112 200
e 112 203
e 112 204
e 112 205
e 112 207
e 112 208
e 112 212
e 112 215
e 112 216
e 112 219
e 112 220
e 112 222
e 112 228
e 112 229
e 112 234
e 112 235
e 112 236
e 112 240
e 112 241
e 112 242
e 112 243
e 112 244
e 112 245
e 112 249
e 112 250
e 113 114
e 113 115
e 113 117
e 113 118
e 113 119
e 113 120
e 113 122
e 113 125
e 113 127
e 113 130
e 113 131
e 113 133
e 113 135
e 113 137
e 113 138
e 113 142
e 113 143
e 113 144
e 113 146
e 113 147
e 113 152
e 113 153
e 113 157
e 113 159
e 113 160
e 113 161
e 113 162
e 113 163
e 113 164
e 113 166
e 113 169
e 113 172
e 113 174
e 113 177
e 113 181
e 113 183
e 113 185
e 113 186
e 113 187
e 113 188
e 113 189
e 113 190
e 113 191
e 113 195
e 113 196
e 113 198
e 113 199
e 113 200
e 113 203
e 113 204
e 113 206
e 113 209
e 113 212
e 113 216
e 113 217
e 113 219
e 113 222
e 113 224
e 113 226
e 113 227
e 113 229
e 113 230
e 113 234
e 113 235
e 113 237
e 113 241
e 113 244
e 113 245
e 113 249
e 114 115
e 114 116
e 114 118
e 114 121
e 114 123
e 114 125
e 114 126
e 114 128
e 114 129
e 114 130
e 114 132
e 114 133
e 114 135
e 114 137
e 114 138
e 114 139
e 114 142
e 114 143
e 114 147
e 114 148
e 114 149
e 114 150
e 114 154
e 114 155
e 114 156
e 114 157
e 114 158
e 114 160
e 114 161
e 114 162
e 114 163
e 114 164
e 114 165
e 114 166
e 114 168
e 114 171
e 114 172
e 114 175
e 114 176
e 114 178
e 114 180
e 114 181
e 114 184
e 114 186
e 114 188
e 114 189
e 114 194
e 114 199
e 114 200
e 114 201
e 114 204
e 114 205
e 114 206
e 114 208
e 114 209
e 114 210
e 114 211
e 114 214
e 114 215
e 114 216
e 114 218
e 114 220
e 114 223
e 114 224
e 114 225
e 114 226
e 114 231
e 114 232
e 114 233
e 114 234
e 114 235
e 114 237
e 114 239
e 114 241
e 114 242
e 114 243
e 114 244
e 114 246
e 114 249
e 115 119
e 115 123
e 115 124
e 115 125
e 115 131
e 115 133
e 115 134
e 115 135
e 115 137
e 115 138
e 115 139
e 115 142
e 115 143
e 115 146
e 115 151
e 115 152
e 115 153
e 115 154
e 115 157
e 115 158
e 115 159
e 115 160
e 115 161
e 115 162
e 115 164
e 115 166
e 115 168
e 115 169
e 115 174
e 115 175
e 115 176
e 115 178
e 115 179
e 115 180
e 115 182
e 115 183
e 115 184
e 115 186
e 115 187
e 115 188
e 115 189
e 115 190
e 115 191
e 115 192
e 115 193
e 115 195
e 115 197
e 115 199
e 115 202
e 115 204
e 115 207
e 115 208
e 115 210
e 115 212
e 115 213
e 115 215
e 115 216
e 115 219
e 115 221
e 115 222
e 115 225
e 115 228
e 115 230
e 115 231
e 115 233
e 115 238
e 115 239
e 115 240
e 115 242
e 115 245
e 115 247
e 115 248
e 115 250
e 116 119
e 116 120
e 116 121
e 116 123
e 116 124
e 116 125
e 116 126
e 116 129
e 116 131
e 116 133
e 116 135
e 116 136
e 116 139
e 116 140
e 116 145
e 116 146
e 116 147
e 116 150
e 116 151
e 116 154
e 116 157
e 116 158
e 116 161
e 116 162
e 116 163
e 116 169
e 116 171
e 116 172
e 116 174
e 116 175
e 116 176
e 116 178
e 116 179
e 116 180
e 116 181
e 116 184
e 116 186
e 116 189
e 116 195
e 116 197
e 116 198
e 116 201
e 116 202
e 116 204
e 116 205
e 116 208
e 116 212
e 116 214
e 116 222
e 116 224
e 116 229
e 116 231
e 116 236
e 116 239
e 116 241
e 116 242
e 116 243
e 116 246
e 116 249
e 117 118
e 117 119
e 117 120
e 117 121
e 117 123
e 117 124
e 117 126
e 117 129
e 117 130
e 117 131
e 117 133
e 117 141
e 117 145
e 117 146
e 117 147
e 117 148
e 117 149
e 117 150
e 117 151
e 117 154
e 117 156
e 117 157
e 117 159
e 117 167
e 117 168
e 117 169
e 117 175
e 117 176
e 117 177
e 117 178
e 117 179
e 117 183
e 117 184
e 117 185
e 117 187
e 117 190
e 117 191
e 117 193
e 117 195
e 117 196
e 117 199
e 117 201
e 117 202
e 117 203
e 117 204
e 117 206
e 117 210
e 117 214
e 117 216
e 117 217
e 117 218
e 117 219
e 117 220
e 117 221
e 117 223
e 117 225
e 117 227
e 117 228
e 117 230
e 117 231
e 117 232
e 117 233
e 117 234
e 117 236
e 117 240
e 117 241
e 117 243
e 117 246
e 117 248
e 117 249
e 117 250
e 118 120
e 118 121
e 118 122
e 118 124
e 118 125
e 118 126
e 118 130
e 118 131
e 118 132
e 118 135
e 118 136
e 118 139
e 118 143
e 118 144
e 118 145
e 118 146
e 118 147
e 118 149
e 118 150
e 118 152
e 118 153
e 118 154
e 118 156
e 118 158
e 118 162
e 118 164
e 118 165
e 118 170
e 118 172
e 118 177
e 118 179
e 118 180
e 118 182
e 118 184
e 118 186
e 118 187
e 118 190
e 118 194
e 118 195
e 118 196
e 118 197
e 118 202
e 118 204
e 118 205
e 118 206
e 118 211
e 118 212
e 118 215
e 118 216
e 118 220
e 118 221
e 118 223
e 118 226
e 118 228
e 118 229
e 118 230
e 118 231
e 118 232
e 118 236
e 118 237
e 118 239
e 118 241
e 118 242
e 118 246
e 119 120
e 119 122
e 119 123
e 119 124
e 119 126
e 119 127
e 119 129
e 119 132
e 119 134
e 119 135
e 119 136
e 119 137
e 119 139
e 119 141
e 119 144
e 119 145
e 119 147
e 119 150
e 119 153
e 119 155
e 119 156
e 119 157
e 119 158
e 119 162
e 119 164
e 119 165
e 119 166
e 119 167
e 119 169
e 119 170
e 119 173
e 119 175
e 119 177
e 119 180
e 119 181
e 119 183
e 119 184
e 119 190
e 119 191
e 119 193
e 119 194
e 119 199
e 119 201
e 119 203
e 119 204
e 119 208
e 119 210
e 119 211
e 119 213
e 119 214
e 119 221
e 119 222
e 119 223
e 119 230
e 119 231
e 119 233
e 119 239
e 119 240
e 119 241
e 119 247
e 120 121
e 120 123
e 120 125
e 120 127
e 120 129
e 120 130
e 120 137
e 120 138
e 120 147
e 120 148
e 120 155
e 120 158
e 120 161
e 120 163
e 120 165
e 120 166
e 120 167
e 120 168
e 120 170
e 120 171
e 120 172
e 120 175
e 120 176
e 120 178
e 120 179
e 120 180
e 120 181
e 120 182
e 120 184
e 120 185
e 120 186
e 120 187
e 120 188
e 120 189
e 120 190
e 120 191
e 120 192
e 120 194
e 120 195
e 120 196
e 120 197
e 120 198
e 120 199
e 120 200
e 120 202
e 120 206
e 120 210
e 120 217
e 120 218
e 120 220
e 120 222
e 120 225
e 120 226
e 120 227
e 120 230
e 120 231
e 120 232
e 120 233
e 120 234
e 120 235
e 120 236
e 120 237
e 120 238
e 120 239
e 120 240
e 120 241
e 120 242
e 120 244
e 120 249
e 121 122
e 121 123
e 121 124
e 121 128
e 121 131
e 121 134
e 121 135
e 121 138
e 121 139
e 121 143
e 121 144
e 121 146
e 121 149
e 121 152
e 121 153
e 121 154
e 121 156
e 121 161
e 121 162
e 121 165
e 121 168
e 121 171
e 121 174
e 121 175
e 121 177
e 121 178
e 121 179
e 121 180
e 121 181
e 121 182
e 121 186
e 121 187
e 121 189
e 121 190
e 121 193
e 121 195
e 121 196
e 121 197
e 121 199
e 121 200
e 121 201
e 121 210
e 121 212
e 121 213
e 121 214
e 121 215
e 121 216
e 121 217
e 121 218
e 121 219
e 121 221
e 121 222
e 121 224
e 121 225
e 121 227
e 121 229
e 121 230
e 121 231
e 121 234
e 121 240
e 121 241
e 121 242
e 121 243
e 121 244
e 121 245
e 121 246
e 121 247
e 121 248
e 121 249
e 121 250
e 122 123
e 122 124
e 122 125
e 122 126
e 122 127
e 122 129
e 122 134
e 122 136
e 122 137
e 122 138
e 122 141
e 122 142
e 122 144
e 122 145
e 122 147
e 122 148
e 122 154
e 122 161
e 122 162
e 122 167
e 122 168
e 122 169
e 122 172
e 122 173
e 122 176
e 122 179
e 122 182
e 122 186
e 122 187
e 122 190
e 122 193
e 122 194
e 122 196
e 122 199
e 122 201
e 122 203
e 122 204
e 122 208
e 122 209
e 122 210
e 122 212
e 122 213
e 122 216
e 122 220
e 122 221
e 122 222
e 122 223
e 122 224
e 122 225
e 122 226
e 122 229
e 122 230
e 122 232
e 122 236
e 122 239
e 122 240
e 122 242
e 122 243
e 122 245
e 122 247
e 122 249
e 123 127
e 123 129
e 123 133
e 123 134
e 123 140
e 123 142
e 123 143
e 123 145
e 123 146
e 123 147
e 123 150
e 123 151
e 123 154
e 123 155
e 123 157
e 123 158
e 123 161
e 123 162
e 123 165
e 123 166
e 123 167
e 123 168
e 123 170
e 123 172
e 123 173
e 123 174
e 123 178
e 123 179
e 123 180
e 123 182
e 123 183
e 123 185
e 123 187
e 123 188
e 123 191
e 123 194
e 123 195
e 123 198
e 123 200
e 123 201
e 123 202
e 123 203
e 123 206
e 123 207
e 123 208
e 123 210
e 123 212
e 123 215
e 123 216
e 123 219
e 123 221
e 123 222
e 123 223
e 123 225
e 123 232
e 123 236
e 123 237
e 123 238
e 123 242
e 123 245
e 123 247
e 123 249
e 123 250
e 124 125
e 124 126
e 124 128
e 124 129
e 124 132
e 124 133
e 124 135
e 124 136
e 124 137
e 124 139
e 124 140
e 124 143
e 124 145
e 124 147
e 124 148
e 124 151
e 124 154
e 124 155
e 124 156
e 124 158
e 124 162
e 124 164
e 124 170
e 124 173
e 124 174
e 124 175
e 124 177
e 124 179
e 124 180
e 124 182
e 124 185
e 124 186
e 124 187
e 124 188
e 124 189
e 124 191
e 124 194
e 124 199
e 124 202
e 124 204
e 124 208
e 124 209
e 124 212
e 124 214
e 124 217
e 124 219
e 124 220
e 124 221
e 124 222
e 124 226
e 124 229
e 124 236
e 124 238
e 124 240
e 124 241
e 124 244
e 124 245
e 124 246
e 124 247
e 124 249
e 125 127
e 125 128
e 125 129
e 125 130
e 125 131
e 125 133
e 125 135
e 125 136
e 125 137
e 125 139
e 125 140
e 125 141
e 125 142
e 125 143
e 125 147
e 125 149
e 125 151
e 125 152
e 125 153
e 125 154
e 125 155
e 125 158
e 125 159
e 125 160
e 125 161
e 125 162
e 125 165
e 125 169
e 125 170
e 125 171
e 125 172
e 125 173
e 125 175
e 125 180
e 125 182
e 125 184
e 125 185
e 125 186
e 125 187
e 125 188
e 125 189
e 125 190
e 125 192
e 125 193
e 125 195
e 125 200
e 125 202
e 125 203
e 125 206
e 125 208
e 125 209
e 125 210
e 125 212
e 125 213
e 125 215
e 125 216
e 125 217
e 125 218
e 125 219
e 125 221
e 125 222
e 125 223
e 125 224
e 125 227
e 125 228
e 125 230
e 125 233
e 125 235
e 125 237
e 125 238
e 125 240
e 125 241
e 125 242
e 125 243
e 125 244
e 125 247
e 125 248
e 125 249
e 126 127
e 126 128
e 126 129
e 126 130
e 126 131
e 126 135
e 126 138
e 126 139
e 126 141
e 126 142
e 126 144
e 126 147
e 126 148
e 126 149
e 126 150
e 126 153
e 126 155
e 126 158
e 126 159
e 126 166
e 126 167
e 126 170
e 126 171
e 126 172
e 126 173
e 126 174
e 126 176
e 126 177
e 126 179
e 126 180
e 126 181
e 126 182
e 126 183
e 126 184
e 126 185
e 126 188
e 126 190
e 126 192
e 126 194
e 126 196
e 126 198
e 126 205
e 126 206
e 126 207
e 126 209
e 126 210
e 126 211
e 126 213
e 126 214
e 126 215
e 126 219
e 126 220
e 126 223
e 126 225
e 126 226
e 126 227
e 126 230
e 126 233
e 126 235
e 126 236
e 126 237
e 126 238
e 126 239
e 126 240
e 126 244
e 126 245
e 126 247
e 126 248
e 126 250
e 127 128
e 127 129
e 127 130
e 127 131
e 127 132
e 127 133
e 127 134
e 127 135
e 127 136
e 127 139
e 127 145
e 127 149
e 127 150
e 127 151
e 127 153
e 127 158
e 127 159
e 127 161
e 127 162
e 127 165
e 127 166
e 127 168
e 127 169
e 127 171
e 127 174
e 127 177
e 127 178
e 127 179
e 127 181
e 127 182
e 127 183
e 127 184
e 127 193
e 127 194
e 127 199
e 127 200
e 127 201
e 127 203
e 127 204
e 127 205
e 127 207
e 127 208
e 127 211
e 127 214
e 127 216
e 127 218
e 127 219
e 127 220
e 127 222
e 127 224
e 127 228
e 127 229
e 127 235
e 127 237
e 127 238
e 127 242
e 127 244
e 127 246
e 127 247
e 127 249
e 128 131
e 128 134
e 128 135
e 128 137
e 128 139
e 128 140
e 128 142
e 128 144
e 128 145
e 128 146
e 128 147
e 128 148
e 128 149
e 128 151
e 128 153
e 128 154
e 128 160
e 128 162
e 128 163
e 128 164
e 128 165
e 128 166
e 128 168
e 128 170
e 128 171
e 128 172
e 128 178
e 128 179
e 128 180
e 128 183
e 128 187
e 128 188
e 128 189
e 128 190
e 128 191
e 128 192
e 128 193
e 128 197
e 128 198
e 128 199
e 128 200
e 128 203
e 128 207
e 128 208
e 128 209
e 128 210
e 128 211
e 128 212
e 128 214
e 128 215
e 128 216
e 128 217
e 128 218
e 128 220
e 128 223
e 128 225
e 128 227
e 128 229
e 128 230
e 128 232
e 128 233
e 128 235
e 128 236
e 128 239
e 128 241
e 128 249
e 129 130
e 129 131
e 129 133
e 129 134
e 129 135
e 129 136
e 129 137
e 129 138
e 129 139
e 129 140
e 129 141
e 129 143
e 129 146
e 129 147
e 129 150
e 129 152
e 129 153
e 129 154
e 129 155
e 129 162
e 129 165
e 129 170
e 129 171
e 129 172
e 129 176
e 129 177
e 129 178
e 129 181
e 129 182
e 129 184
e 129 185
e 129 186
e 129 188
e 129 189
e 129 191
e 129 192
e 129 193
e 129 194
e 129 195
e 129 201
e 129 204
e 129 205
e 129 206
e 129 210
e 129 212
e 129 213
e 129 215
e 129 217
e 129 218
e 129 221
e 129 222
e 129 224
e 129 227
e 129 231
e 129 234
e 129 236
e 129 237
e 129 240
e 129 247
e 129 249
e 130 131
e 130 132
e 130 136
e 130 137
e 130 139
e 130 142
e 130 144
e 130 150
e 130 152
e 130 156
e 130 157
e 130 158
e 130 159
e 130 160
e 130 164
e 130 167
e 130 168
e 130 170
e 130 174
e 130 176
e 130 177
e 130 179
e 130 182
e 130 183
e 130 189
e 130 190
e 130 195
e 130 196
e 130 197
e 130 198
e 130 200
e 130 201
e 130 202
e 130 203
e 130 204
e 130 210
e 130 212
e 130 213
e 130 214
e 130 216
e 130 218
e 130 220
e 130 223
e 130 224
e 130 225
e 130 230
e 130 232
e 130 234
e 130 235
e 130 236
e 130 238
e 130 239
e 130 240
e 130 241
e 130 243
e 130 249
e 130 250
e 131 134
e 131 135
e 131 137
e 131 144
e 131 149
e 131 151
e 131 157
e 131 158
e 131 159
e 131 162
e 131 164
e 131 166
e 131 168
e 131 170
e 131 171
e 131 172
e 131 173
e 131 176
e 131 178
e 131 179
e 131 180
e 131 181
e 131 182
e 131 183
e 131 184
e 131 186
e 131 187
e 131 188
e 131 190
e 131 191
e 131 195
e 131 196
e 131 197
e 131 198
e 131 202
e 131 205
e 131 209
e 131 210
e 131 216
e 131 219
e 131 220
e 131 226
e 131 227
e 131 234
e 131 237
e 131 239
e 131 241
e 131 242
e 131 244
e 131 248
e 131 250
e 132 134
e 132 135
e 132 136
e 132 138
e 132 139
e 132 142
e 132 143
e 132 144
e 132 145
e 132 146
e 132 147
e 132 148
e 132 149
e 132 150
e 132 152
e 132 155
e 132 156
e 132 157
e 132 158
e 132 161
e 132 163
e 132 164
e 132 165
e 132 166
e 132 167
e 132 168
e 132 169
e 132 170
e 132 171
e 132 172
e 132 173
e 132 174
e 132 175
e 132 176
e 132 177
e 132 181
e 132 182
e 132 186
e 132 187
e 132 188
e 132 189
e 132 190
e 132 192
e 132 194
e 132 196
e 132 198
e 132 199
e 132 200
e 132 201
e 132 203
e 132 205
e 132 207
e 132 210
e 132 211
e 132 213
e 132 215
e 132 217
e 132 218
e 132 220
e 132 223
e 132 228
e 132 229
e 132 231
e 132 238
e 132 241
e 132 242
e 132 243
e 132 244
e 132 246
e 133 134
e 133 135
e 133 139
e 133 143
e 133 144
e 133 145
e 133 146
e 133 148
e 133 151
e 133 152
e 133 154
e 133 156
e 133 158
e 133 159
e 133 161
e 133 163
e 133 164
e 133 168
e 133 172
e 133 175
e 133 178
e 133 179
e 133 186
e 133 188
e 133 189
e 133 190
e 133 193
e 133 194
e 133 196
e 133 198
e 133 199
e 133 200
e 133 201
e 133 203
e 133 204
e 133 205
e 133 206
e 133 208
e 133 210
e 133 211
e 133 216
e 133 221
e 133 222
e 133 223
e 133 226
e 133 227
e 133 228
e 133 230
e 133 232
e 133 236
e 133 237
e 133 239
e 133 242
e 133 243
e 133 244
e 133 245
e 133 246
e 133 247
e 133 249
e 133 250
e 134 135
e 134 138
e 134 140
e 134 142
e 134 145
e 134 150
e 134 153
e 134 154
e 134 158
e 134 159
e 134 160
e 134 161
e 134 162
e 134 164
e 134 165
e 134 167
e 134 168
e 134 169
e 134 170
e 134 174
e 134 176
e 134 177
e 134 179
e 134 181
e 134 185
e 134 186
e 134 187
e 134 193
e 134 195
e 134 197
e 134 199
e 134 200
e 134 203
e 134 206
e 134 208
e 134 209
e 134 213
e 134 215
e 134 217
e 134 219
e 134 220
e 134 221
e 134 223
e 134 226
e 134 227
e 134 229
e 134 231
e 134 232
e 134 233
e 134 238
e 134 239
e 134 241
e 134 243
e 134 244
e 134 245
e 134 248
e 135 138
e 135 139
e 135 147
e 135 148
e 135 150
e 135 151
e 135 152
e 135 154
e 135 157
e 135 161
e 135 162
e 135 163
e 135 167
e 135 168
e 135 170
e 135 171
e 135 174
e 135 175
e 135 176
e 135 178
e 135 179
e 135 182
e 135 183
e 135 186
e 135 187
e 135 188
e 135 190
e 135 191
e 135 192
e 135 193
e 135 194
e 135 197
e 135 198
e 135 201
e 135 202
e 135 203
e 135 205
e 135 206
e 135 209
e 135 210
e 135 211
e 135 212
e 135 213
e 135 214
e 135 216
e 135 217
e 135 219
e 135 221
e 135 224
e 135 225
e 135 227
e 135 228
e 135 230
e 135 231
e 135 235
e 135 239
e 135 243
e 135 244
e 135 249
e 135 250
e 136 141
e 136 146
e 136 147
e 136 148
e 136 150
e 136 151
e 136 153
e 136 154
e 136 156
e 136 158
e 136 159
e 136 161
e 136 162
e 136 163
e 136 164
e 136 165
e 136 166
e 136 168
e 136 169
e 136 171
e 136 173
e 136 175
e 136 177
e 136 179
e 136 180
e 136 181
e 136 182
e 136 184
e 136 185
e 136 191
e 136 193
e 136 195
e 136 196
e 136 197
e 136 199
e 136 202
e 136 204
e 136 205
e 136 210
e 136 211
e 136 213
e 136 218
e 136 219
e 136 223
e 136 224
e 136 225
e 136 228
e 136 229
e 136 230
e 136 232
e 136 233
e 136 235
e 136 236
e 136 237
e 136 242
e 136 249
e 136 250
e 137 140
e 137 141
e 137 142
e 137 143
e 137 144
e 137 145
e 137 147
e 137 158
e 137 160
e 137 163
e 137 166
e 137 168
e 137 169
e 137 170
e 137 171
e 137 173
e 137 174
e 137 176
e 137 178
e 137 180
e 137 181
e 137 187
e 137 189
e 137 191
e 137 193
e 137 194
e 137 195
e 137 196
e 137 197
e 137 199
e 137 204
e 137 205
e 137 207
e 137 209
e 137 210
e 137 211
e 137 212
e 137 214
e 137 216
e 137 220
e 137 222
e 137 225
e 137 227
e 137 229
e 137 231
e 137 236
e 137 237
e 137 239
e 137 240
e 137 242
e 137 243
e 137 245
e 137 246
e 137 247
e 137 250
e 138 139
e 138 146
e 138 147
e 138 149
e 138 152
e 138 153
e 138 154
e 138 155
e 138 158
e 138 159
e 138 160
e 138 161
e 138 162
e 138 167
e 138 170
e 138 171
e 138 172
e 138 173
e 138 175
e 138 176
e 138 178
e 138 179
e 138 180
e 138 181
e 138 182
e 138 183
e 138 186
e 138 189
e 138 193
e 138 196
e 138 197
e 138 198
e 138 200
e 138 202
e 138 203
e 138 205
e 138 206
e 138 207
e 138 208
e 138 212
e 138 214
e 138 218
e 138 223
e 138 225
e 138 227
e 138 229
e 138 230
e 138 234
e 138 235
e 138 236
e 138 237
e 138 238
e 138 240
e 138 241
e 138 242
e 138 244
e 138 245
e 138 246
e 138 247
e 138 248
e 138 249
e 138 250
e 139 142
e 139 144
e 139 148
e 139 149
e 139 151
e 139 152
e 139 153
e 139 156
e 139 158
e 139 161
e 139 163
e 139 166
e 139 170
e 139 172
e 139 173
e 139 175
e 139 176
e 139 177
e 139 179
e 139 182
e 139 184
e 139 187
e 139 189
e 139 190
e 139 192
e 139 193
e 139 195
e 139 196
e 139 201
e 139 204
e 139 205
e 139 206
e 139 207
e 139 208
e 139 210
e 139 211
e 139 212
e 139 214
e 139 215
e 139 216
e 139 217
e 139 220
e 139 222
e 139 225
e 139 227
e 139 230
e 139 231
e 139 232
e 139 233
e 139 234
e 139 235
e 139 236
e 139 237
e 139 240
e 139 247
e 139 248
e 139 249
e 139 250
e 140 141
e 140 142
e 140 143
e 140 147
e 140 148
e 140 151
e 140 152
e 140 156
e 140 157
e 140 158
e 140 160
e 140 161
e 140 162
e 140 166
e 140 169
e 140 170
e 140 171
e 140 175
e 140 176
e 140 179
e 140 183
e 140 185
e 140 186
e 140 191
e 140 193
e 140 195
e 140 199
e 140 200
e 140 201
e 140 204
e 140 205
e 140 206
e 140 207
e 140 208
e 140 209
e 140 210
e 140 211
e 140 215
e 140 218
e 140 222
e 140 225
e 140 226
e 140 227
e 140 230
e 140 231
e 140 232
e 140 235
e 140 236
e 140 237
e 140 240
e 140 242
e 140 243
e 140 244
e 140 245
e 140 246
e 140 247
e 140 249
e 140 250
e 141 142
e 141 144
e 141 145
e 141 146
e 141 148
e 141 150
e 141 151
e 141 152
e 141 156
e 141 157
e 141 158
e 141 164
e 141 165
e 141 167
e 141 169
e 141 173
e 141 174
e 141 175
e 141 177
e 141 180
e 141 184
e 141 185
e 141 186
e 141 187
e 141 190
e 141 191
e 141 192
e 141 193
e 141 195
e 141 197
e 141 201
e 141 204
e 141 205
e 141 207
e 141 209
e 141 211
e 141 212
e 141 213
e 141 215
e 141 216
e 141 219
e 141 220
e 141 221
e 141 222
e 141 225
e 141 228
e 141 230
e 141 231
e 141 233
e 141 239
e 141 240
e 141 242
e 141 243
e 141 244
e 141 245
e 142 143
e 142 144
e 142 146
e 142 149
e 142 152
e 142 153
e 142 154
e 142 156
e 142 158
e 142 168
e 142 170
e 142 171
e 142 172
e 142 175
e 142 176
e 142 177
e 142 181
e 142 183
e 142 188
e 142 191
e 142 195
e 142 198
e 142 199
e 142 201
e 142 203
e 142 204
e 142 206
e 142 207
e 142 209
e 142 212
e 142 222
e 142 224
e 142 227
e 142 228
e 142 229
e 142 230
e 142 234
e 142 236
e 142 237
e 142 238
e 142 239
e 142 240
e 142 242
e 142 243
e 142 247
e 142 248
e 142 249
e 142 250
e 143 144
e 143 149
e 143 151
e 143 152
e 143 153
e 143 154
e 143 155
e 143 157
e 143 158
e 143 159
e 143 162
e 143 164
e 143 166
e 143 168
e 143 169
e 143 170
e 143 174
e 143 177
e 143 179
e 143 180
e 143 183
e 143 184
e 143 187
e 143 188
e 143 189
e 143 190
e 143 192
e 143 193
e 143 194
e 143 196
e 143 198
e 143 202
e 143 203
e 143 204
e 143 205
e 143 206
e 143 208
e 143 209
e 143 210
e 143 211
e 143 212
e 143 213
e 143 214
e 143 217
e 143 219
e 143 221
e 143 222
e 143 227
e 143 228
e 143 230
e 143 231
e 143 237
e 143 239
e 143 241
e 143 242
e 143 243
e 143 244
e 143 245
e 143 247
e 143 249
e 143 250
e 144 146
e 144 148
e 144 152
e 144 157
e 144 159
e 144 160
e 144 164
e 144 166
e 144 169
e 144 171
e 144 172
e 144 174
e 144 175
e 144 177
e 144 183
e 144 184
e 144 188
e 144 190
e 144 194
e 144 195
e 144 196
e 144 197
e 144 200
e 144 203
e 144 204
e 144 207
e 144 208
e 144 210
e 144 211
e 144 213
e 144 214
e 144 215
e 144 216
e 144 218
e 144 221
e 144 222
e 144 225
e 144 229
e 144 231
e 144 234
e 144 235
e 144 236
e 144 237
e 144 240
e 144 241
e 144 244
e 144 247
e 144 249
e 145 148
e 145 149
e 145 150
e 145 153
e 145 156
e 145 160
e 145 161
e 145 162
e 145 164
e 145 166
e 145 170
e 145 171
e 145 172
e 145 176
e 145 179
e 145 180
e 145 181
e 145 182
e 145 184
e 145 186
e 145 187
e 145 188
e 145 189
e 145 194
e 145 199
e 145 200
e 145 201
e 145 202
e 145 203
e 145 206
e 145 208
e 145 209
e 145 211
e 145 212
e 145 213
e 145 214
e 145 216
e 145 218
e 145 219
e 145 220
e 145 221
e 145 224
e 145 225
e 145 229
e 145 232
e 145 236
e 145 238
e 145 242
e 145 245
e 145 250
e 146 148
e 146 152
e 146 153
e 146 154
e 146 155
e 146 157
e 146 158
e 146 159
e 146 161
e 146 162
e 146 165
e 146 166
e 146 167
e 146 170
e 146 173
e 146 174
e 146 175
e 146 176
e 146 177
e 146 179
e 146 180
e 146 183
e 146 185
e 146 186
e 146 187
e 146 188
e 146 192
e 146 193
e 146 195
e 146 197
e 146 199
e 146 200
e 146 202
e 146 203
e 146 205
e 146 206
e 146 208
e 146 210
e 146 211
e 146 212
e 146 213
e 146 215
e 146 217
e 146 218
e 146 219
e 146 224
e 146 225
e 146 227
e 146 228
e 146 230
e 146 234
e 146 235
e 146 236
e 146 237
e 146 239
e 146 242
e 146 243
e 146 244
e 146 246
e 146 247
e 146 250
e 147 148
e 147 150
e 147 152
e 147 154
e 147 155
e 147 156
e 147 159
e 147 160
e 147 161
e 147 162
e 147 165
e 147 166
e 147 168
e 147 169
e 147 170
e 147 172
e 147 173
e 147 177
e 147 179
e 147 180
e 147 181
e 147 183
e 147 185
e 147 186
e 147 187
e 147 188
e 147 189
e 147 192
e 147 193
e 147 194
e 147 198
e 147 199
e 147 203
e 147 204
e 147 205
e 147 207
e 147 208
e 147 213
e 147 215
e 147 217
e 147 218
e 147 221
e 147 222
e 147 226
e 147 227
e 147 228
e 147 229
e 147 230
e 147 232
e 147 233
e 147 235
e 147 237
e 147 239
e 147 242
e 147 245
e 147 247
e 147 248
e 148 150
e 148 151
e 148 152
e 148 154
e 148 156
e 148 157
e 148 159
e 148 161
e 148 166
e 148 168
e 148 173
e 148 175
e 148 177
e 148 178
e 148 179
e 148 180
e 148 181
e 148 182
e 148 186
e 148 187
e 148 199
e 148 200
e 148 201
e 148 205
e 148 206
e 148 208
e 148 211
e 148 212
e 148 214
e 148 215
e 148 218
e 148 222
e 148 223
e 148 228
e 148 229
e 148 230
e 148 234
e 148 235
e 148 238
e 148 239
e 148 240
e 148 245
e 148 249
e 149 150
e 149 151
e 149 153
e 149 154
e 149 155
e 149 156
e 149 159
e 149 162
e 149 164
e 149 165
e 149 166
e 149 167
e 149 169
e 149 170
e 149 174
e 149 176
e 149 177
e 149 180
e 149 182
e 149 185
e 149 187
e 149 189
e 149 190
e 149 191
e 149 192
e 149 193
e 149 195
e 149 196
e 149 198
e 149 199
e 149 201
e 149 202
e 149 204
e 149 214
e 149 215
e 149 216
e 149 217
e 149 218
e 149 219
e 149 222
e 149 223
e 149 224
e 149 225
e 149 227
e 149 228
e 149 229
e 149 230
e 149 231
e 149 234
e 149 235
e 149 237
e 149 238
e 149 239
e 149 240
e 149 243
e 149 245
e 149 246
e 149 247
e 149 248
e 149 250
e 150 155
e 150 157
e 150 158
e 150 165
e 150 171
e 150 173
e 150 174
e 150 175
e 150 180
e 150 181
e 150 183
e 150 185
e 150 187
e 150 188
e 150 189
e 150 190
e 150 192
e 150 193
e 150 195
e 150 202
e 150 203
e 150 204
e 150 205
e 150 210
e 150 211
e 150 214
e 150 215
e 150 216
e 150 217
e 150 218
e 150 220
e 150 222
e 150 226
e 150 228
e 150 229
e 150 230
e 150 231
e 150 233
e 150 234
e 150 238
e 150 239
e 150 240
e 150 241
e 150 242
e 150 245
e 150 249
e 150 250
e 151 155
e 151 156
e 151 157
e 151 159
e 151 160
e 151 161
e 151 162
e 151 163
e 151 167
e 151 168
e 151 169
e 151 170
e 151 173
e 151 174
e 151 175
e 151 177
e 151 180
e 151 181
e 151 185
e 151 187
e 151 189
e 151 190
e 151 193
e 151 194
e 151 200
e 151 201
e 151 202
e 151 203
e 151 204
e 151 205
e 151 206
e 151 207
e 151 208
e 151 209
e 151 210
e 151 214
e 151 215
e 151 216
e 151 219
e 151 220
e 151 223
e 151 224
e 151 225
e 151 227
e 151 228
e 151 229
e 151 230
e 151 234
e 151 237
e 151 238
e 151 239
e 151 242
e 151 243
e 151 245
e 151 247
e 151 248
e 151 250
e 152 153
e 152 154
e 152 156
e 152 157
e 152 158
e 152 159
e 152 160
e 152 161
e 152 162
e 152 164
e 152 166
e 152 167
e 152 168
e 152 169
e 152 171
e 152 172
e 152 174
e 152 175
e 152 176
e 152 177
e 152 180
e 152 181
e 152 183
e 152 184
e 152 185
e 152 186
e 152 187
e 152 188
e 152 189
e 152 190
e 152 191
e 152 192
e 152 195
e 152 196
e 152 198
e 152 200
e 152 204
e 152 205
e 152 206
e 152 208
e 152 210
e 152 213
e 152 214
e 152 215
e 152 216
e 152 219
e 152 220
e 152 222
e 152 223
e 152 226
e 152 227
e 152 230
e 152 233
e 152 235
e 152 236
e 152 237
e 152 238
e 152 239
e 152 240
e 152 242
e 152 243
e 152 244
e 152 245
e 152 249
e 153 154
e 153 155
e 153 156
e 153 157
e 153 158
e 153 162
e 153 165
e 153 166
e 153 168
e 153 169
e 153 172
e 153 173
e 153 178
e 153 179
e 153 183
e 153 184
e 153 185
e 153 188
e 153 189
e 153 190
e 153 193
e 153 194
e 153 197
e 153 199
e 153 201
e 153 202
e 153 203
e 153 207
e 153 208
e 153 209
e 153 211
e 153 212
e 153 215
e 153 216
e 153 217
e 153 218
e 153 219
e 153 220
e 153 221
e 153 225
e 153 228
e 153 229
e 153 232
e 153 233
e 153 235
e 153 236
e 153 237
e 153 238
e 153 239
e 153 242
e 153 243
e 153 245
e 153 248
e 153 250
e 154 155
e 154 158
e 154 161
e 154 162
e 154 163
e 154 172
e 154 173
e 154 174
e 154 175
e 154 176
e 154 178
e 154 179
e 154 180
e 154 182
e 154 183
e 154 184
e 154 187
e 154 188
e 154 189
e 154 190
e 154 191
e 154 192
e 154 193
e 154 194
e 154 195
e 154 196
e 154 197
e 154 198
e 154 199
e 154 201
e 154 205
e 154 206
e 154 207
e 154 210
e 154 211
e 154 212
e 154 214
e 154 215
e 154 216
e 154 217
e 154 223
e 154 226
e 154 228
e 154 229
e 154 230
e 154 232
e 154 233
e 154 234
e 154 235
e 154 236
e 154 237
e 154 238
e 154 240
e 154 241
e 154 243
e 154 244
e 154 246
e 154 247
e 154 248
e 154 249
e 154 250
e 155 157
e 155 160
e 155 166
e 155 168
e 155 171
e 155 173
e 155 174
e 155 176
e 155 177
e 155 178
e 155 180
e 155 182
e 155 184
e 155 188
e 155 190
e 155 193
e 155 197
e 155 198
e 155 200
e 155 201
e 155 202
e 155 203
e 155 206
e 155 210
e 155 211
e 155 213
e 155 214
e 155 216
e 155 217
e 155 219
e 155 222
e 155 223
e 155 225
e 155 227
e 155 228
e 155 231
e 155 233
e 155 234
e 155 235
e 155 236
e 155 242
e 155 247
e 155 248
e 156 157
e 156 158
e 156 160
e 156 161
e 156 162
e 156 164
e 156 167
e 156 168
e 156 169
e 156 170
e 156 174
e 156 178
e 156 179
e 156 185
e 156 189
e 156 190
e 156 194
e 156 195
e 156 199
e 156 200
e 156 203
e 156 204
e 156 205
e 156 208
e 156 209
e 156 210
e 156 213
e 156 214
e 156 217
e 156 219
e 156 222
e 156 224
e 156 225
e 156 229
e 156 231
e 156 233
e 156 234
e 156 237
e 156 238
e 156 240
e 156 245
e 156 246
e 156 247
e 156 249
e 156 250
e 157 161
e 157 162
e 157 163
e 157 164
e 157 165
e 157 167
e 157 168
e 157 169
e 157 171
e 157 174
e 157 183
e 157 186
e 157 187
e 157 192
e 157 194
e 157 195
e 157 199
e 157 200
e 157 201
e 157 202
e 157 203
e 157 205
e 157 206
e 157 207
e 157 208
e 157 211
e 157 213
e 157 215
e 157 216
e 157 217
e 157 219
e 157 220
e 157 222
e 157 224
e 157 225
e 157 232
e 157 233
e 157 234
e 157 236
e 157 237
e 157 238
e 157 240
e 157 243
e 157 244
e 157 245
e 157 246
e 158 162
e 158 165
e 158 166
e 158 173
e 158 176
e 158 177
e 158 178
e 158 180
e 158 181
e 158 182
e 158 184
e 158 185
e 158 187
e 158 188
e 158 189
e 158 190
e 158 191
e 158 193
e 158 195
e 158 196
e 158 197
e 158 198
e 158 199
e 158 200
e 158 201
e 158 203
e 158 207
e 158 212
e 158 213
e 158 214
e 158 215
e 158 216
e 158 219
e 158 220
e 158 223
e 158 224
e 158 225
e 158 228
e 158 229
e 158 230
e 158 233
e 158 234
e 158 238
e 158 240
e 158 244
e 158 247
e 158 248
e 158 249
e 159 161
e 159 162
e 159 163
e 159 164
e 159 166
e 159 169
e 159 171
e 159 174
e 159 177
e 159 179
e 159 180
e 159 181
e 159 182
e 159 183
e 159 184
e 159 185
e 159 186
e 159 188
e 159 189
e 159 191
e 159 192
e 159 193
e 159 195
e 159 198
e 159 200
e 159 201
e 159 204
e 159 205
e 159 208
e 159 209
e 159 211
e 159 212
e 159 213
e 159 219
e 159 222
e 159 224
e 159 228
e 159 230
e 159 231
e 159 232
e 159 234
e 159 237
e 159 239
e 159 241
e 159 242
e 159 243
e 159 244
e 159 245
e 159 249
e 159 250
e 160 161
e 160 162
e 160 164
e 160 166
e 160 167
e 160 169
e 160 170
e 160 171
e 160 175
e 160 176
e 160 178
e 160 179
e 160 180
e 160 181
e 160 183
e 160 184
e 160 185
e 160 186
e 160 188
e 160 190
e 160 194
e 160 195
e 160 197
e 160 200
e 160 203
e 160 205
e 160 206
e 160 207
e 160 208
e 160 209
e 160 211
e 160 213
e 160 214
e 160 215
e 160 216
e 160 217
e 160 218
e 160 222
e 160 223
e 160 225
e 160 226
e 160 227
e 160 232
e 160 233
e 160 234
e 160 235
e 160 237
e 160 239
e 160 242
e 160 243
e 160 244
e 160 245
e 160 246
e 160 248
e 160 250
e 161 162
e 161 163
e 161 164
e 161 165
e 161 166
e 161 167
e 161 170
e 161 172
e 161 174
e 161 176
e 161 177
e 161 178
e 161 183
e 161 184
e 161 187
e 161 189
e 161 191
e 161 192
e 161 193
e 161 194
e 161 195
e 161 196
e 161 198
e 161 199
e 161 200
e 161 203
e 161 205
e 161 206
e 161 210
e 161 211
e 161 213
e 161 214
e 161 216
e 161 217
e 161 218
e 161 219
e 161 220
e 161 224
e 161 226
e 161 227
e 161 228
e 161 230
e 161 231
e 161 232
e 161 233
e 161 236
e 161 237
e 161 238
e 161 240
e 161 242
e 161 244
e 161 245
e 161 247
e 161 250
e 162 163
e 162 166
e 162 167
e 162 173
e 162 174
e 162 176
e 162 181
e 162 182
e 162 183
e 162 185
e 162 186
e 162 195
e 162 197
e 162 198
e 162 199
e 162 204
e 162 205
e 162 213
e 162 215
e 162 216
e 162 218
e 162 224
e 162 225
e 162 226
e 162 229
e 162 235
e 162 236
e 162 242
e 162 245
e 162 248
e 162 249
e 163 165
e 163 168
e 163 171
e 163 172
e 163 173
e 163 174
e 163 176
e 163 178
e 163 180
e 163 181
e 163 182
e 163 183
e 163 185
e 163 186
e 163 188
e 163 189
e 163 192
e 163 194
e 163 195
e 163 196
e 163 198
e 163 199
e 163 203
e 163 204
e 163 206
e 163 209
e 163 212
e 163 214
e 163 215
e 163 216
e 163 217
e 163 218
e 163 220
e 163 221
e 163 222
e 163 224
e 163 225
e 163 231
e 163 232
e 163 234
e 163 235
e 163 236
e 163 238
e 163 240
e 163 243
e 163 244
e 163 246
e 163 247
e 163 248
e 163 249
e 163 250
e 164 168
e 164 170
e 164 173
e 164 175
e 164 176
e 164 179
e 164 189
e 164 190
e 164 196
e 164 198
e 164 199
e 164 200
e 164 203
e 164 205
e 164 206
e 164 210
e 164 211
e 164 213
e 164 217
e 164 218
e 164 225
e 164 226
e 164 229
e 164 238
e 164 239
e 164 246
e 164 249
e 165 166
e 165 167
e 165 168
e 165 169
e 165 171
e 165 173
e 165 176
e 165 181
e 165 182
e 165 185
e 165 187
e 165 190
e 165 192
e 165 193
e 165 196
e 165 199
e 165 201
e 165 202
e 165 203
e 165 207
e 165 208
e 165 209
e 165 210
e 165 211
e 165 217
e 165 225
e 165 228
e 165 229
e 165 234
e 165 238
e 165 240
e 165 241
e 165 242
e 165 244
e 165 245
e 166 167
e 166 168
e 166 170
e 166 171
e 166 172
e 166 173
e 166 174
e 166 176
e 166 178
e 166 180
e 166 181
e 166 182
e 166 183
e 166 186
e 166 188
e 166 189
e 166 191
e 166 192
e 166 193
e 166 194
e 166 195
e 166 198
e 166 199
e 166 203
e 166 204
e 166 205
e 166 206
e 166 207
e 166 210
e 166 212
e 166 214
e 166 218
e 166 220
e 166 221
e 166 224
e 166 225
e 166 227
e 166 228
e 166 230
e 166 231
e 166 234
e 166 235
e 166 241
e 166 242
e 166 243
e 166 244
e 166 246
e 166 247
e 166 248
e 167 168
e 167 169
e 167 170
e 167 171
e 167 174
e 167 175
e 167 178
e 167 179
e 167 181
e 167 183
e 167 186
e 167 187
e 167 192
e 167 193
e 167 197
e 167 199
e 167 200
e 167 201
e 167 202
e 167 204
e 167 205
e 167 208
e 167 209
e 167 210
e 167 211
e 167 215
e 167 223
e 167 224
e 167 226
e 167 228
e 167 229
e 167 231
e 167 233
e 167 238
e 167 239
e 167 241
e 167 243
e 167 245
e 167 246
e 167 248
e 168 169
e 168 172
e 168 173
e 168 174
e 168 175
e 168 177
e 168 178
e 168 179
e 168 181
e 168 185
e 168 186
e 168 187
e 168 188
e 168 192
e 168 193
e 168 196
e 168 197
e 168 199
e 168 200
e 168 201
e 168 203
e 168 204
e 168 205
e 168 207
e 168 209
e 168 210
e 168 211
e 168 212
e 168 218
e 168 219
e 168 221
e 168 223
e 168 224
e 168 225
e 168 226
e 168 232
e 168 233
e 168 234
e 168 235
e 168 237
e 168 238
e 168 240
e 168 242
e 168 246
e 168 247
e 168 249
e 169 170
e 169 172
e 169 174
e 169 179
e 169 180
e 169 181
e 169 184
e 169 185
e 169 186
e 169 187
e 169 188
e 169 189
e 169 190
e 169 195
e 169 197
e 169 200
e 169 205
e 169 206
e 169 207
e 169 208
e 169 211
e 169 213
e 169 218
e 169 220
e 169 223
e 169 224
e 169 227
e 169 229
e 169 230
e 169 233
e 169 234
e 169 236
e 169 238
e 169 241
e 169 245
e 169 248
e 169 250
e 170 175
e 170 176
e 170 177
e 170 179
e 170 181
e 170 183
e 170 184
e 170 185
e 170 188
e 170 190
e 170 192
e 170 193
e 170 194
e 170 196
e 170 198
e 170 199
e 170 205
e 170 206
e 170 209
e 170 211
e 170 212
e 170 213
e 170 215
e 170 217
e 170 220
e 170 221
e 170 223
e 170 224
e 170 226
e 170 228
e 170 229
e 170 232
e 170 233
e 170 235
e 170 236
e 170 237
e 170 239
e 170 241
e 170 249
e 170 250
e 171 173
e 171 174
e 171 176
e 171 179
e 171 182
e 171 184
e 171 186
e 171 189
e 171 190
e 171 191
e 171 194
e 171 198
e 171 200
e 171 201
e 171 203
e 171 204
e 171 212
e 171 218
e 171 219
e 171 220
e 171 221
e 171 222
e 171 224
e 171 226
e 171 227
e 171 228
e 171 229
e 171 233
e 171 234
e 171 236
e 171 238
e 171 242
e 171 243
e 171 246
e 171 247
e 171 248
e 171 249
e 172 174
e 172 176
e 172 180
e 172 181
e 172 184
e 172 185
e 172 188
e 172 191
e 172 193
e 172 196
e 172 202
e 172 203
e 172 204
e 172 206
e 172 207
e 172 209
e 172 212
e 172 215
e 172 221
e 172 229
e 172 230
e 172 234
e 172 239
e 172 242
e 172 243
e 172 244
e 172 245
e 172 246
e 172 248
e 173 175
e 173 176
e 173 178
e 173 179
e 173 180
e 173 183
e 173 190
e 173 193
e 173 194
e 173 195
e 173 198
e 173 199
e 173 201
e 173 204
e 173 205
e 173 207
e 173 208
e 173 210
e 173 211
e 173 212
e 173 214
e 173 215
e 173 216
e 173 218
e 173 219
e 173 221
e 173 223
e 173 225
e 173 227
e 173 230
e 173 232
e 173 233
e 173 237
e 173 238
e 173 239
e 173 242
e 173 243
e 173 245
e 173 247
e 173 248
e 173 249
e 173 250
e 174 175
e 174 176
e 174 177
e 174 179
e 174 181
e 174 182
e 174 183
e 174 185
e 174 186
e 174 187
e 174 188
e 174 190
e 174 194
e 174 195
e 174 197
e 174 203
e 174 206
e 174 207
e 174 209
e 174 212
e 174 213
e 174 214
e 174 218
e 174 219
e 174 220
e 174 223
e 174 226
e 174 227
e 174 228
e 174 229
e 174 231
e 174 232
e 174 233
e 174 236
e 174 237
e 174 238
e 174 240
e 174 242
e 174 244
e 174 246
e 174 248
e 174 249
e 174 250
e 175 177
e 175 179
e 175 181
e 175 182
e 175 183
e 175 184
e 175 185
e 175 186
e 175 187
e 175 188
e 175 189
e 175 190
e 175 191
e 175 192
e 175 193
e 175 194
e 175 196
e 175 202
e 175 204
e 175 205
e 175 206
e 175 208
e 175 211
e 175 212
e 175 214
e 175 217
e 175 218
e 175 221
e 175 222
e 175 223
e 175 226
e 175 228
e 175 229
e 175 233
e 175 235
e 175 239
e 175 242
e 175 243
e 175 244
e 175 248
e 176 178
e 176 182
e 176 183
e 176 184
e 176 188
e 176 189
e 176 190
e 176 194
e 176 195
e 176 196
e 176 199
e 176 202
e 176 205
e 176 207
e 176 208
e 176 209
e 176 210
e 176 212
e 176 213
e 176 214
e 176 222
e 176 227
e 176 231
e 176 233
e 176 235
e 176 237
e 176 243
e 176 244
e 176 246
e 176 249
e 177 178
e 177 179
e 177 180
e 177 183
e 177 185
e 177 186
e 177 187
e 177 192
e 177 193
e 177 195
e 177 196
e 177 198
e 177 200
e 177 201
e 177 203
e 177 209
e 177 212
e 177 213
e 177 215
e 177 216
e 177 218
e 177 221
e 177 222
e 177 224
e 177 228
e 177 230
e 177 232
e 177 235
e 177 237
e 177 241
e 178 179
e 178 180
e 178 183
e 178 185
e 178 186
e 178 189
e 178 192
e 178 194
e 178 201
e 178 203
e 178 205
e 178 207
e 178 208
e 178 210
e 178 213
e 178 215
e 178 217
e 178 219
e 178 225
e 178 227
e 178 228
e 178 231
e 178 233
e 178 239
e 178 244
e 178 246
e 178 248
e 178 249
e 179 180
e 179 182
e 179 187
e 179 189
e 179 193
e 179 194
e 179 199
e 179 201
e 179 206
e 179 209
e 179 211
e 179 212
e 179 215
e 179 216
e 179 217
e 179 218
e 179 221
e 179 222
e 179 224
e 179 227
e 179 228
e 179 230
e 179 231
e 179 233
e 179 238
e 179 241
e 179 244
e 179 249
e 179 250
e 180 181
e 180 182
e 180 183
e 180 184
e 180 185
e 180 187
e 180 188
e 180 190
e 180 191
e 180 192
e 180 194
e 180 195
e 180 199
e 180 206
e 180 207
e 180 210
e 180 211
e 180 212
e 180 213
e 180 220
e 180 222
e 180 224
e 180 226
e 180 227
e 180 228
e 180 230
e 180 232
e 180 233
e 180 237
e 180 238
e 180 242
e 180 244
e 181 184
e 181 185
e 181 187
e 181 190
e 181 191
e 181 194
e 181 198
e 181 199
e 181 200
e 181 201
e 181 206
e 181 210
e 181 213
e 181 215
e 181 216
e 181 217
e 181 219
e 181 220
e 181 221
e 181 223
e 181 224
e 181 227
e 181 228
e 181 230
e 181 231
e 181 232
e 181 233
e 181 235
e 181 236
e 181 239
e 181 240
e 181 241
e 181 242
e 181 244
e 181 245
e 181 250
e 182 188
e 182 191
e 182 192
e 182 195
e 182 197
e 182 198
e 182 200
e 182 201
e 182 202
e 182 204
e 182 206
e 182 207
e 182 210
e 182 212
e 182 216
e 182 218
e 182 219
e 182 220
e 182 221
e 182 223
e 182 225
e 182 226
e 182 227
e 182 228
e 182 231
e 182 232
e 182 233
e 182 235
e 182 237
e 182 238
e 182 239
e 182 241
e 182 243
e 182 244
e 182 245
e 182 247
e 182 248
e 182 249
e 183 185
e 183 186
e 183 187
e 183 188
e 183 189
e 183 190
e 183 191
e 183 193
e 183 195
e 183 196
e 183 197
e 183 201
e 183 202
e 183 204
e 183 206
e 183 207
e 183 209
e 183 211
e 183 213
e 183 214
e 183 215
e 183 217
e 183 218
e 183 219
e 183 220
e 183 221
e 183 223
e 183 232
e 183 233
e 183 237
e 183 239
e 183 240
e 183 241
e 183 243
e 183 245
e 183 246
e 183 247
e 183 250
e 184 185
e 184 186
e 184 187
e 184 188
e 184 196
e 184 197
e 184 198
e 184 200
e 184 201
e 184 204
e 184 205
e 184 207
e 184 208
e 184 214
e 184 217
e 184 218
e 184 222
e 184 224
e 184 225
e 184 227
e 184 229
e 184 230
e 184 231
e 184 241
e 184 247
e 185 186
e 185 188
e 185 191
e 185 193
e 185 194
e 185 195
e 185 198
e 185 201
e 185 203
e 185 205
e 185 206
e 185 209
e 185 213
e 185 214
e 185 215
e 185 216
e 185 217
e 185 218
e 185 219
e 185 220
e 185 223
e 185 227
e 185 229
e 185 230
e 185 231
e 185 232
e 185 233
e 185 235
e 185 238
e 185 239
e 185 243
e 185 244
e 185 245
e 185 248
e 185 249
e 185 250
e 186 187
e 186 191
e 186 197
e 186 199
e 186 200
e 186 201
e 186 203
e 186 204
e 186 212
e 186 214
e 186 217
e 186 219
e 186 221
e 186 224
e 186 225
e 186 226
e 186 229
e 186 231
e 186 232
e 186 234
e 186 237
e 186 238
e 186 243
e 186 246
e 186 248
e 186 249
e 186 250
e 187 189
e 187 190
e 187 192
e 187 194
e 187 195
e 187 196
e 187 197
e 187 201
e 187 205
e 187 207
e 187 209
e 187 211
e 187 212
e 187 213
e 187 214
e 187 216
e 187 217
e 187 222
e 187 225
e 187 227
e 187 234
e 187 236
e 187 238
e 187 240
e 187 242
e 187 246
e 188 190
e 188 191
e 188 194
e 188 197
e 188 198
e 188 199
e 188 201
e 188 202
e 188 203
e 188 207
e 188 215
e 188 219
e 188 220
e 188 222
e 188 223
e 188 224
e 188 226
e 188 227
e 188 230
e 188 233
e 188 234
e 188 235
e 188 236
e 188 241
e 188 242
e 188 245
e 188 250
e 189 192
e 189 196
e 189 199
e 189 200
e 189 204
e 189 205
e 189 207
e 189 209
e 189 210
e 189 212
e 189 213
e 189 217
e 189 221
e 189 223
e 189 226
e 189 227
e 189 228
e 189 233
e 189 234
e 189 235
e 189 236
e 189 238
e 189 241
e 189 243
e 189 245
e 189 246
e 189 250
e 190 191
e 190 192
e 190 194
e 190 195
e 190 196
e 190 198
e 190 200
e 190 201
e 190 202
e 190 205
e 190 206
e 190 207
e 190 211
e 190 216
e 190 218
e 190 219
e 190 220
e 190 221
e 190 222
e 190 223
e 190 224
e 190 226
e 190 230
e 190 233
e 190 234
e 190 235
e 190 236
e 190 238
e 190 239
e 190 241
e 190 244
e 190 245
e 190 249
e 190 250
e 191 194
e 191 197
e 191 201
e 191 202
e 191 203
e 191 207
e 191 208
e 191 209
e 191 210
e 191 211
e 191 212
e 191 213
e 191 215
e 191 217
e 191 221
e 191 222
e 191 224
e 191 225
e 191 226
e 191 228
e 191 231
e 191 232
e 191 233
e 191 234
e 191 241
e 191 242
e 191 243
e 191 244
e 191 248
e 192 194
e 192 195
e 192 198
e 192 199
e 192 201
e 192 202
e 192 203
e 192 204
e 192 206
e 192 207
e 192 208
e 192 211
e 192 212
e 192 215
e 192 217
e 192 221
e 192 222
e 192 225
e 192 226
e 192 228
e 192 230
e 192 231
e 192 234
e 192 235
e 192 236
e 192 237
e 192 238
e 192 239
e 192 240
e 192 241
e 192 244
e 192 246
e 192 249
e 192 250
e 193 195
e 193 196
e 193 197
e 193 198
e 193 200
e 193 201
e 193 202
e 193 205
e 193 206
e 193 208
e 193 209
e 193 210
e 193 213
e 193 214
e 193 215
e 193 216
e 193 219
e 193 221
e 193 226
e 193 227
e 193 229
e 193 232
e 193 233
e 193 235
e 193 236
e 193 237
e 193 240
e 193 243
e 193 244
e 193 245
e 193 246
e 194 195
e 194 199
e 194 200
e 194 201
e 194 203
e 194 204
e 194 207
e 194 208
e 194 210
e 194 214
e 194 215
e 194 217
e 194 218
e 194 219
e 194 220
e 194 222
e 194 223
e 194 224
e 194 228
e 194 233
e 194 236
e 194 238
e 194 240
e 194 243
e 194 244
e 194 245
e 194 246
e 194 247
e 194 248
e 194 249
e 195 198
e 195 199
e 195 200
e 195 203
e 195 204
e 195 205
e 195 210
e 195 211
e 195 212
e 195 215
e 195 217
e 195 218
e 195 222
e 195 223
e 195 230
e 195 231
e 195 232
e 195 233
e 195 234
e 195 235
e 195 237
e 195 238
e 195 249
e 196 199
e 196 204
e 196 205
e 196 206
e 196 209
e 196 210
e 196 212
e 196 213
e 196 214
e 196 215
e 196 217
e 196 219
e 196 220
e 196 222
e 196 224
e 196 228
e 196 230
e 196 232
e 196 234
e 196 235
e 196 236
e 196 237
e 196 238
e 196 239
e 196 241
e 196 244
e 196 245
e 196 246
e 196 247
e 196 248
e 196 250
e 197 199
e 197 200
e 197 201
e 197 204
e 197 206
e 197 207
e 197 208
e 197 210
e 197 211
e 197 212
e 197 214
e 197 215
e 197 219
e 197 220
e 197 223
e 197 224
e 197 225
e 197 227
e 197 235
e 197 236
e 197 238
e 197 241
e 197 242
e 197 243
e 197 244
e 197 249
e 198 201
e 198 206
e 198 208
e 198 209
e 198 211
e 198 216
e 198 217
e 198 218
e 198 220
e 198 221
e 198 227
e 198 228
e 198 229
e 198 230
e 198 232
e 198 233
e 198 235
e 198 239
e 198 240
e 198 241
e 198 242
e 198 245
e 198 247
e 198 248
e 198 249
e 199 200
e 199 201
e 199 202
e 199 203
e 199 204
e 199 205
e 199 207
e 199 208
e 199 214
e 199 215
e 199 216
e 199 217
e 199 218
e 199 220
e 199 223
e 199 225
e 199 226
e 199 234
e 199 239
e 199 240
e 199 242
e 199 243
e 199 244
e 199 245
e 199 246
e 199 247
e 200 206
e 200 207
e 200 208
e 200 209
e 200 210
e 200 212
e 200 213
e 200 214
e 200 215
e 200 218
e 200 219
e 200 223
e 200 226
e 200 233
e 200 234
e 200 236
e 200 239
e 200 240
e 200 241
e 200 244
e 200 246
e 200 247
e 200 248
e 200 249
e 200 250
e 201 202
e 201 203
e 201 206
e 201 207
e 201 212
e 201 213
e 201 214
e 201 215
e 201 219
e 201 220
e 201 221
e 201 222
e 201 225
e 201 226
e 201 229
e 201 233
e 201 235
e 201 236
e 201 237
e 201 239
e 201 240
e 201 243
e 201 245
e 201 246
e 201 248
e 201 250
e 202 203
e 202 204
e 202 206
e 202 208
e 202 210
e 202 213
e 202 218
e 202 220
e 202 221
e 202 226
e 202 228
e 202 229
e 202 231
e 202 232
e 202 238
e 202 240
e 202 241
e 202 244
e 202 246
e 202 247
e 202 248
e 202 250
e 203 204
e 203 205
e 203 208
e 203 209
e 203 211
e 203 213
e 203 214
e 203 216
e 203 219
e 203 220
e 203 222
e 203 226
e 203 228
e 203 229
e 203 232
e 203 235
e 203 238
e 203 239
e 203 242
e 203 243
e 203 244
e 203 246
e 203 247
e 203 248
e 203 249
e 203 250
e 204 206
e 204 212
e 204 213
e 204 220
e 204 221
e 204 222
e 204 229
e 204 230
e 204 234
e 204 235
e 204 237
e 204 238
e 204 240
e 204 242
e 204 245
e 204 247
e 204 249
e 205 206
e 205 208
e 205 210
e 205 211
e 205 215
e 205 216
e 205 218
e 205 223
e 205 224
e 205 225
e 205 226
e 205 228
e 205 229
e 205 232
e 205 234
e 205 237
e 205 238
e 205 239
e 205 240
e 205 242
e 205 243
e 205 244
e 205 248
e 206 208
e 206 210
e 206 215
e 206 216
e 206 217
e 206 218
e 206 219
e 206 221
e 206 227
e 206 231
e 206 232
e 206 233
e 206 235
e 206 238
e 206 239
e 206 244
e 206 246
e 206 250
e 207 208
e 207 209
e 207 211
e 207 212
e 207 216
e 207 217
e 207 220
e 207 221
e 207 224
e 207 227
e 207 228
e 207 230
e 207 231
e 207 232
e 207 233
e 207 234
e 207 235
e 207 236
e 207 238
e 207 239
e 207 240
e 207 244
e 207 245
e 207 247
e 207 248
e 207 250
e 208 209
e 208 214
e 208 218
e 208 220
e 208 223
e 208 224
e 208 226
e 208 227
e 208 230
e 208 231
e 208 233
e 208 234
e 208 235
e 208 236
e 208 237
e 208 238
e 208 239
e 208 245
e 208 247
e 208 249
e 209 210
e 209 214
e 209 216
e 209 218
e 209 219
e 209 220
e 209 221
e 209 222
e 209 224
e 209 227
e 209 228
e 209 230
e 209 231
e 209 232
e 209 239
e 209 240
e 209 241
e 209 247
e 209 248
e 210 211
e 210 212
e 210 214
e 210 218
e 210 220
e 210 221
e 210 222
e 210 225
e 210 235
e 210 236
e 210 237
e 210 238
e 210 240
e 210 241
e 210 243
e 210 245
e 210 246
e 210 248
e 210 249
e 210 250
e 211 212
e 211 215
e 211 216
e 211 218
e 211 220
e 211 222
e 211 225
e 211 226
e 211 227
e 211 228
e 211 230
e 211 235
e 211 236
e 211 238
e 211 239
e 211 241
e 211 243
e 211 244
e 211 245
e 211 246
e 211 247
e 211 250
e 212 213
e 212 214
e 212 216
e 212 217
e 212 218
e 212 220
e 212 223
e 212 225
e 212 226
e 212 229
e 212 231
e 212 232
e 212 233
e 212 235
e 212 236
e 212 241
e 212 243
e 212 246
e 212 247
e 212 248
e 213 214
e 213 216
e 213 220
e 213 222
e 213 224
e 213 227
e 213 228
e 213 229
e 213 230
e 213 232
e 213 236
e 213 238
e 213 240
e 213 241
e 213 242
e 213 244
e 213 246
e 213 248
e 214 215
e 214 216
e 214 218
e 214 219
e 214 220
e 214 222
e 214 223
e 214 224
e 214 226
e 214 228
e 214 229
e 214 232
e 214 234
e 214 235
e 214 236
e 214 238
e 214 239
e 214 240
e 214 241
e 214 242
e 214 244
e 214 248
e 214 249
e 214 250
e 215 218
e 215 221
e 215 222
e 215 224
e 215 228
e 215 229
e 215 230
e 215 231
e 215 232
e 215 235
e 215 236
e 215 238
e 215 239
e 215 242
e 215 243
e 215 244
e 215 246
e 215 250
e 216 217
e 216 220
e 216 223
e 216 226
e 216 228
e 216 229
e 216 230
e 216 231
e 216 233
e 216 235
e 216 237
e 216 238
e 216 239
e 216 240
e 216 241
e 216 242
e 216 243
e 216 244
e 216 245
e 216 250
e 217 218
e 217 222
e 217 225
e 217 226
e 217 228
e 217 231
e 217 232
e 217 233
e 217 234
e 217 235
e 217 236
e 217 237
e 217 238
e 217 239
e 217 240
e 217 241
e 217 244
e 217 245
e 217 246
e 217 247
e 217 250
e 218 220
e 218 221
e 218 222
e 218 223
e 218 225
e 218 227
e 218 228
e 218 229
e 218 230
e 218 231
e 218 232
e 218 234
e 218 236
e 218 237
e 218 238
e 218 239
e 218 241
e 218 242
e 218 243
e 218 244
e 218 247
e 218 249
e 218 250
e 219 221
e 219 222
e 219 223
e 219 225
e 219 226
e 219 230
e 219 231
e 219 235
e 219 236
e 219 237
e 219 240
e 219 241
e 219 242
e 219 245
e 219 247
e 219 249
e 220 221
e 220 224
e 220 225
e 220 227
e 220 228
e 220 232
e 220 234
e 220 237
e 220 238
e 220 243
e 220 244
e 220 245
e 220 246
e 220 249
e 221 223
e 221 224
e 221 231
e 221 232
e 221 233
e 221 234
e 221 235
e 221 236
e 221 237
e 221 240
e 221 241
e 221 243
e 221 244
e 221 246
e 221 248
e 222 226
e 222 227
e 222 228
e 222 230
e 222 232
e 222 234
e 222 237
e 222 238
e 222 239
e 222 243
e 222 244
e 222 245
e 222 246
e 222 247
e 222 248
e 223 226
e 223 228
e 223 230
e 223 231
e 223 233
e 223 235
e 223 240
e 223 241
e 223 242
e 223 243
e 223 245
e 223 246
e 223 247
e 224 225
e 224 226
e 224 227
e 224 228
e 224 229
e 224 232
e 224 234
e 224 236
e 224 237
e 224 238
e 224 240
e 224 241
e 224 242
e 224 243
e 224 245
e 224 246
e 224 247
e 224 248
e 224 249
e 225 231
e 225 232
e 225 235
e 225 237
e 225 240
e 225 242
e 225 245
e 225 246
e 225 247
e 226 227
e 226 229
e 226 233
e 226 234
e 226 235
e 226 236
e 226 240
e 226 242
e 226 244
e 226 246
e 226 248
e 226 249
e 227 230
e 227 231
e 227 232
e 227 234
e 227 235
e 227 236
e 227 246
e 228 230
e 228 231
e 228 233
e 228 235
e 228 237
e 228 238
e 228 239
e 228 240
e 228 241
e 228 243
e 228 244
e 228 248
e 228 250
e 229 232
e 229 233
e 229 235
e 229 236
e 229 238
e 229 239
e 229 240
e 229 242
e 229 244
e 230 233
e 230 236
e 230 237
e 230 242
e 230 244
e 230 245
e 230 246
e 230 247
e 230 248
e 230 249
e 231 233
e 231 237
e 231 244
e 231 246
e 231 247
e 231 248
e 231 249
e 232 233
e 232 238
e 232 244
e 232 245
e 232 246
e 232 250
e 233 237
e 233 238
e 233 240
e 233 243
e 233 245
e 233 248
e 233 249
e 234 235
e 234 236
e 234 237
e 234 238
e 234 240
e 234 241
e 234 242
e 234 243
e 234 246
e 234 250
e 235 236
e 235 237
e 235 238
e 235 239
e 235 240
e 235 241
e 235 247
e 235 249
e 236 238
e 236 241
e 236 246
e 236 247
e 236 248
e 236 250
e 237 242
e 237 243
e 237 244
e 237 245
e 237 246
e 237 248
e 237 249
e 238 242
e 238 244
e 238 247
e 238 248
e 238 250
e 239 240
e 239 243
e 239 244
e 239 245
e 239 247
e 239 249
e 239 250
e 240 241
e 240 244
e 240 246
e 240 247
e 240 248
e 240 250
e 241 243
e 241 244
e 241 245
e 241 250
e 242 247
e 242 249
e 243 244
e 243 246
e 243 249
e 244 245
e 244 246
e 244 249
e 244 250
e 245 246
e 245 247
e 246 247
e 246 248
e 246 249
e 247 250
e 248 249
