c Converted from gc_20_3
c Source format: '<vertices> <edges>' header followed by integer edge pairs
p edge 20 63
e 1 5
e 1 14
e 2 3
e 2 4
e 2 7
e 2 19
e 2 20
e 3 4
e 3 6
e 3 9
e 3 11
e 3 12
e 3 16
e 3 17
e 3 19
e 4 8
e 4 9
e 4 14
e 4 16
e 4 20
e 5 7
e 5 10
e 5 11
e 5 12
e 5 13
e 5 15
e 5 16
e 5 19
e 6 7
e 6 8
e 6 10
e 6 11
e 6 12
e 7 12
e 7 14
e 7 15
e 7 17
e 7 18
e 8 10
e 9 12
e 9 14
e 9 19
e 10 11
e 10 12
e 10 13
e 10 14
e 10 15
e 10 18
e 11 12
e 11 13
e 11 15
e 11 16
e 11 18
e 11 20
e 12 14
e 12 20
e 13 19
e 14 16
e 14 19
e 16 19
e 16 20
e 17 20
e 19 20
