c Converted from gc_500_3
c Source format: '<vertices> <edges>' header followed by integer edge pairs
p edge 500 37528
e 1 2
e 1 6
e 1 7
e 1 8
e 1 10
e 1 13
e 1 22
e 1 23
e 1 24
e 1 29
e 1 30
e 1 31
e 1 42
e 1 45
e 1 51
e 1 52
e 1 56
e 1 61
e 1 62
e 1 63
e 1 67
e 1 70
e 1 75
e 1 79
e 1 84
e 1 87
e 1 89
e 1 94
e 1 95
e 1 108
e 1 109
e 1 123
e 1 125
e 1 127
e 1 130
e 1 135
e 1 147
e 1 148
e 1 149
e 1 155
e 1 157
e 1 158
e 1 163
e 1 165
e 1 173
e 1 175
e 1 177
e 1 180
e 1 182
e 1 193
e 1 197
e 1 198
e 1 204
e 1 205
e 1 206
e 1 208
e 1 209
e 1 210
e 1 211
e 1 212
e 1 217
e 1 222
e 1 223
e 1 227
e 1 232
e 1 233
e 1 236
e 1 237
e 1 240
e 1 244
e 1 246
e 1 254
e 1 261
e 1 263
e 1 265
e 1 266
e 1 267
e 1 273
e 1 277
e 1 282
e 1 287
e 1 288
e 1 290
e 1 291
e 1 292
e 1 301
e 1 305
e 1 310
e 1 312
e 1 313
e 1 314
e 1 316
e 1 318
e 1 320
e 1 324
e 1 326
e 1 328
e 1 333
e 1 337
e 1 338
e 1 340
e 1 341
e 1 342
e 1 343
e 1 344
e 1 350
e 1 351
e 1 357
e 1 358
e 1 373
e 1 375
e 1 376
e 1 380
e 1 381
e 1 383
e 1 391
e 1 394
e 1 397
e 1 400
e 1 401
e 1 402
e 1 403
e 1 406
e 1 408
e 1 409
e 1 410
e 1 413
e 1 414
e 1 420
e 1 424
e 1 429
e 1 430
e 1 434
e 1 438
e 1 441
e 1 442
e 1 453
e 1 455
e 1 456
e 1 459
e 1 461
e 1 464
e 1 465
e 1 466
e 1 467
e 1 471
e 1 472
e 1 476
e 1 479
e 1 482
e 1 483
e 1 484
e 1 491
e 1 493
e 1 497
e 1 498
e 2 11
e 2 12
e 2 19
e 2 29
e 2 31
e 2 34
e 2 37
e 2 44
e 2 46
e 2 48
e 2 52
e 2 56
e 2 61
e 2 64
e 2 67
e 2 68
e 2 83
e 2 85
e 2 86
e 2 88
e 2 93
e 2 95
e 2 97
e 2 98
e 2 99
e 2 100
e 2 105
e 2 106
e 2 108
e 2 111
e 2 119
e 2 123
e 2 126
e 2 131
e 2 136
e 2 137
e 2 141
e 2 142
e 2 143
e 2 146
e 2 156
e 2 161
e 2 162
e 2 165
e 2 166
e 2 167
e 2 169
e 2 180
e 2 181
e 2 184
e 2 191
e 2 194
e 2 202
e 2 208
e 2 209
e 2 212
e 2 213
e 2 217
e 2 219
e 2 223
e 2 224
e 2 229
e 2 232
e 2 233
e 2 237
e 2 241
e 2 245
e 2 249
e 2 250
e 2 251
e 2 253
e 2 254
e 2 255
e 2 263
e 2 264
e 2 267
e 2 269
e 2 270
e 2 277
e 2 278
e 2 280
e 2 282
e 2 291
e 2 297
e 2 309
e 2 311
e 2 313
e 2 315
e 2 320
e 2 321
e 2 322
e 2 324
e 2 326
e 2 328
e 2 334
e 2 336
e 2 337
e 2 339
e 2 344
e 2 349
e 2 350
e 2 351
e 2 354
e 2 355
e 2 368
e 2 370
e 2 375
e 2 381
e 2 382
e 2 383
e 2 385
e 2 389
e 2 393
e 2 394
e 2 395
e 2 401
e 2 404
e 2 405
e 2 407
e 2 410
e 2 417
e 2 419
e 2 426
e 2 429
e 2 434
e 2 443
e 2 449
e 2 454
e 2 456
e 2 458
e 2 465
e 2 469
e 2 471
e 2 473
e 2 474
e 2 484
e 2 485
e 2 486
e 2 500
e 3 7
e 3 12
e 3 13
e 3 14
e 3 15
e 3 16
e 3 17
e 3 20
e 3 24
e 3 27
e 3 31
e 3 35
e 3 38
e 3 40
e 3 44
e 3 45
e 3 47
e 3 48
e 3 51
e 3 52
e 3 54
e 3 57
e 3 58
e 3 59
e 3 62
e 3 67
e 3 75
e 3 79
e 3 84
e 3 88
e 3 89
e 3 96
e 3 100
e 3 111
e 3 113
e 3 114
e 3 117
e 3 118
e 3 126
e 3 129
e 3 135
e 3 142
e 3 152
e 3 154
e 3 161
e 3 162
e 3 164
e 3 165
e 3 170
e 3 172
e 3 175
e 3 177
e 3 185
e 3 194
e 3 198
e 3 200
e 3 201
e 3 207
e 3 214
e 3 224
e 3 240
e 3 243
e 3 247
e 3 248
e 3 250
e 3 252
e 3 254
e 3 260
e 3 261
e 3 264
e 3 267
e 3 268
e 3 272
e 3 276
e 3 280
e 3 281
e 3 294
e 3 295
e 3 298
e 3 299
e 3 300
e 3 303
e 3 305
e 3 309
e 3 318
e 3 322
e 3 324
e 3 326
e 3 328
e 3 334
e 3 339
e 3 341
e 3 342
e 3 343
e 3 349
e 3 352
e 3 368
e 3 370
e 3 379
e 3 382
e 3 388
e 3 392
e 3 393
e 3 400
e 3 401
e 3 403
e 3 404
e 3 406
e 3 407
e 3 415
e 3 417
e 3 418
e 3 421
e 3 422
e 3 423
e 3 428
e 3 431
e 3 433
e 3 436
e 3 441
e 3 445
e 3 446
e 3 451
e 3 453
e 3 454
e 3 456
e 3 459
e 3 463
e 3 465
e 3 466
e 3 469
e 3 472
e 3 473
e 3 474
e 3 481
e 3 487
e 3 488
e 3 489
e 3 490
e 3 497
e 3 500
e 4 8
e 4 13
e 4 17
e 4 19
e 4 21
e 4 22
e 4 25
e 4 31
e 4 35
e 4 38
e 4 39
e 4 42
e 4 48
e 4 50
e 4 51
e 4 55
e 4 56
e 4 62
e 4 67
e 4 68
e 4 71
e 4 76
e 4 79
e 4 81
e 4 82
e 4 84
e 4 86
e 4 91
e 4 96
e 4 100
e 4 106
e 4 109
e 4 110
e 4 114
e 4 115
e 4 116
e 4 117
e 4 123
e 4 124
e 4 127
e 4 128
e 4 130
e 4 131
e 4 139
e 4 140
e 4 141
e 4 145
e 4 149
e 4 151
e 4 154
e 4 156
e 4 158
e 4 161
e 4 166
e 4 169
e 4 171
e 4 174
e 4 175
e 4 177
e 4 179
e 4 180
e 4 181
e 4 189
e 4 190
e 4 198
e 4 207
e 4 208
e 4 211
e 4 212
e 4 216
e 4 218
e 4 219
e 4 224
e 4 225
e 4 230
e 4 234
e 4 235
e 4 237
e 4 248
e 4 250
e 4 262
e 4 264
e 4 268
e 4 269
e 4 271
e 4 272
e 4 273
e 4 274
e 4 276
e 4 278
e 4 280
e 4 281
e 4 282
e 4 287
e 4 291
e 4 293
e 4 294
e 4 295
e 4 297
e 4 300
e 4 315
e 4 316
e 4 324
e 4 326
e 4 327
e 4 330
e 4 331
e 4 337
e 4 340
e 4 341
e 4 342
e 4 349
e 4 354
e 4 356
e 4 360
e 4 362
e 4 365
e 4 368
e 4 370
e 4 378
e 4 387
e 4 391
e 4 394
e 4 397
e 4 398
e 4 399
e 4 400
e 4 402
e 4 403
e 4 407
e 4 411
e 4 413
e 4 414
e 4 415
e 4 416
e 4 422
e 4 426
e 4 432
e 4 435
e 4 436
e 4 438
e 4 439
e 4 442
e 4 444
e 4 451
e 4 452
e 4 457
e 4 458
e 4 459
e 4 463
e 4 470
e 4 473
e 4 475
e 4 487
e 4 496
e 4 497
e 4 500
e 5 6
e 5 23
e 5 27
e 5 34
e 5 36
e 5 46
e 5 47
e 5 50
e 5 51
e 5 54
e 5 56
e 5 60
e 5 62
e 5 63
e 5 66
e 5 79
e 5 81
e 5 85
e 5 86
e 5 91
e 5 92
e 5 94
e 5 97
e 5 100
e 5 105
e 5 109
e 5 111
e 5 119
e 5 122
e 5 126
e 5 128
e 5 132
e 5 137
e 5 138
e 5 140
e 5 152
e 5 155
e 5 156
e 5 160
e 5 163
e 5 164
e 5 166
e 5 168
e 5 185
e 5 188
e 5 198
e 5 203
e 5 207
e 5 209
e 5 213
e 5 214
e 5 215
e 5 218
e 5 220
e 5 221
e 5 222
e 5 225
e 5 226
e 5 230
e 5 231
e 5 234
e 5 237
e 5 239
e 5 241
e 5 244
e 5 246
e 5 251
e 5 252
e 5 259
e 5 261
e 5 262
e 5 275
e 5 276
e 5 278
e 5 285
e 5 295
e 5 297
e 5 299
e 5 301
e 5 304
e 5 307
e 5 310
e 5 312
e 5 314
e 5 325
e 5 327
e 5 331
e 5 334
e 5 341
e 5 347
e 5 350
e 5 355
e 5 367
e 5 368
e 5 369
e 5 370
e 5 371
e 5 374
e 5 379
e 5 382
e 5 384
e 5 395
e 5 397
e 5 402
e 5 403
e 5 404
e 5 406
e 5 407
e 5 408
e 5 414
e 5 418
e 5 419
e 5 420
e 5 432
e 5 437
e 5 438
e 5 441
e 5 443
e 5 447
e 5 451
e 5 452
e 5 467
e 5 468
e 5 469
e 5 471
e 5 472
e 5 474
e 5 476
e 5 480
e 5 486
e 5 488
e 5 489
e 5 490
e 5 492
e 5 494
e 5 497
e 6 8
e 6 11
e 6 13
e 6 14
e 6 22
e 6 26
e 6 29
e 6 30
e 6 31
e 6 32
e 6 35
e 6 36
e 6 39
e 6 43
e 6 47
e 6 55
e 6 60
e 6 66
e 6 69
e 6 70
e 6 74
e 6 77
e 6 83
e 6 84
e 6 87
e 6 90
e 6 92
e 6 99
e 6 101
e 6 103
e 6 113
e 6 118
e 6 119
e 6 120
e 6 123
e 6 125
e 6 126
e 6 127
e 6 128
e 6 130
e 6 132
e 6 134
e 6 135
e 6 136
e 6 139
e 6 145
e 6 146
e 6 153
e 6 156
e 6 159
e 6 160
e 6 165
e 6 166
e 6 167
e 6 169
e 6 172
e 6 173
e 6 179
e 6 181
e 6 184
e 6 185
e 6 187
e 6 188
e 6 190
e 6 191
e 6 193
e 6 196
e 6 197
e 6 200
e 6 202
e 6 209
e 6 212
e 6 220
e 6 226
e 6 229
e 6 233
e 6 234
e 6 235
e 6 237
e 6 239
e 6 243
e 6 248
e 6 254
e 6 258
e 6 259
e 6 266
e 6 268
e 6 269
e 6 271
e 6 277
e 6 278
e 6 281
e 6 282
e 6 287
e 6 288
e 6 291
e 6 292
e 6 296
e 6 301
e 6 304
e 6 307
e 6 309
e 6 311
e 6 312
e 6 313
e 6 319
e 6 320
e 6 321
e 6 322
e 6 329
e 6 334
e 6 336
e 6 338
e 6 339
e 6 343
e 6 345
e 6 347
e 6 349
e 6 352
e 6 353
e 6 362
e 6 363
e 6 365
e 6 371
e 6 372
e 6 373
e 6 375
e 6 378
e 6 383
e 6 385
e 6 386
e 6 389
e 6 396
e 6 402
e 6 403
e 6 404
e 6 405
e 6 407
e 6 414
e 6 415
e 6 417
e 6 418
e 6 421
e 6 424
e 6 428
e 6 432
e 6 435
e 6 437
e 6 438
e 6 439
e 6 442
e 6 443
e 6 445
e 6 446
e 6 449
e 6 455
e 6 460
e 6 461
e 6 462
e 6 465
e 6 467
e 6 472
e 6 474
e 6 476
e 6 477
e 6 483
e 6 486
e 6 491
e 6 493
e 6 494
e 6 500
e 7 8
e 7 11
e 7 19
e 7 20
e 7 22
e 7 28
e 7 33
e 7 35
e 7 37
e 7 39
e 7 42
e 7 55
e 7 56
e 7 63
e 7 68
e 7 70
e 7 71
e 7 81
e 7 82
e 7 87
e 7 89
e 7 90
e 7 98
e 7 102
e 7 103
e 7 105
e 7 113
e 7 116
e 7 119
e 7 123
e 7 129
e 7 132
e 7 134
e 7 136
e 7 142
e 7 146
e 7 148
e 7 150
e 7 155
e 7 157
e 7 160
e 7 161
e 7 162
e 7 164
e 7 169
e 7 172
e 7 179
e 7 182
e 7 184
e 7 188
e 7 195
e 7 202
e 7 205
e 7 206
e 7 213
e 7 219
e 7 235
e 7 236
e 7 238
e 7 240
e 7 245
e 7 248
e 7 257
e 7 260
e 7 263
e 7 266
e 7 267
e 7 273
e 7 278
e 7 280
e 7 288
e 7 289
e 7 298
e 7 299
e 7 301
e 7 309
e 7 321
e 7 329
e 7 335
e 7 336
e 7 338
e 7 346
e 7 360
e 7 370
e 7 378
e 7 379
e 7 380
e 7 381
e 7 385
e 7 387
e 7 393
e 7 396
e 7 398
e 7 399
e 7 400
e 7 402
e 7 407
e 7 410
e 7 417
e 7 418
e 7 419
e 7 420
e 7 433
e 7 439
e 7 443
e 7 447
e 7 452
e 7 453
e 7 455
e 7 457
e 7 458
e 7 459
e 7 463
e 7 464
e 7 465
e 7 473
e 7 483
e 7 487
e 7 488
e 7 491
e 7 493
e 7 499
e 7 500
e 8 10
e 8 26
e 8 29
e 8 30
e 8 32
e 8 33
e 8 35
e 8 38
e 8 39
e 8 42
e 8 48
e 8 49
e 8 54
e 8 63
e 8 71
e 8 75
e 8 80
e 8 84
e 8 86
e 8 87
e 8 91
e 8 92
e 8 93
e 8 98
e 8 102
e 8 105
e 8 113
e 8 116
e 8 118
e 8 123
e 8 135
e 8 136
e 8 141
e 8 142
e 8 148
e 8 151
e 8 153
e 8 155
e 8 158
e 8 162
e 8 165
e 8 170
e 8 177
e 8 179
e 8 180
e 8 181
e 8 184
e 8 187
e 8 188
e 8 192
e 8 196
e 8 197
e 8 200
e 8 206
e 8 207
e 8 215
e 8 216
e 8 221
e 8 224
e 8 229
e 8 230
e 8 234
e 8 240
e 8 241
e 8 243
e 8 244
e 8 246
e 8 247
e 8 249
e 8 253
e 8 257
e 8 258
e 8 263
e 8 273
e 8 275
e 8 281
e 8 283
e 8 285
e 8 291
e 8 294
e 8 302
e 8 311
e 8 313
e 8 314
e 8 325
e 8 328
e 8 330
e 8 333
e 8 342
e 8 343
e 8 344
e 8 349
e 8 353
e 8 354
e 8 358
e 8 360
e 8 362
e 8 365
e 8 366
e 8 371
e 8 379
e 8 380
e 8 382
e 8 384
e 8 385
e 8 389
e 8 390
e 8 391
e 8 392
e 8 396
e 8 397
e 8 410
e 8 411
e 8 412
e 8 413
e 8 414
e 8 417
e 8 418
e 8 419
e 8 420
e 8 426
e 8 428
e 8 430
e 8 434
e 8 437
e 8 442
e 8 451
e 8 456
e 8 457
e 8 458
e 8 460
e 8 466
e 8 469
e 8 478
e 8 479
e 8 485
e 8 495
e 8 496
e 8 500
e 9 11
e 9 13
e 9 17
e 9 18
e 9 20
e 9 23
e 9 33
e 9 35
e 9 37
e 9 40
e 9 43
e 9 45
e 9 46
e 9 49
e 9 57
e 9 59
e 9 61
e 9 62
e 9 64
e 9 66
e 9 68
e 9 70
e 9 82
e 9 85
e 9 88
e 9 89
e 9 92
e 9 93
e 9 96
e 9 99
e 9 100
e 9 101
e 9 102
e 9 105
e 9 112
e 9 114
e 9 126
e 9 130
e 9 132
e 9 133
e 9 135
e 9 139
e 9 140
e 9 143
e 9 147
e 9 148
e 9 151
e 9 152
e 9 154
e 9 159
e 9 161
e 9 169
e 9 171
e 9 172
e 9 174
e 9 176
e 9 177
e 9 180
e 9 187
e 9 192
e 9 197
e 9 200
e 9 202
e 9 204
e 9 209
e 9 214
e 9 216
e 9 226
e 9 233
e 9 236
e 9 243
e 9 244
e 9 245
e 9 249
e 9 251
e 9 254
e 9 257
e 9 260
e 9 265
e 9 267
e 9 274
e 9 290
e 9 291
e 9 300
e 9 301
e 9 304
e 9 308
e 9 309
e 9 313
e 9 316
e 9 317
e 9 318
e 9 320
e 9 321
e 9 322
e 9 325
e 9 327
e 9 328
e 9 329
e 9 330
e 9 331
e 9 346
e 9 349
e 9 352
e 9 358
e 9 359
e 9 360
e 9 362
e 9 364
e 9 371
e 9 377
e 9 378
e 9 379
e 9 380
e 9 385
e 9 387
e 9 388
e 9 390
e 9 393
e 9 395
e 9 396
e 9 406
e 9 408
e 9 415
e 9 417
e 9 418
e 9 431
e 9 436
e 9 442
e 9 444
e 9 449
e 9 450
e 9 454
e 9 455
e 9 463
e 9 465
e 9 466
e 9 469
e 9 472
e 9 474
e 9 477
e 9 481
e 9 484
e 9 487
e 9 488
e 9 489
e 9 490
e 9 497
e 9 499
e 10 12
e 10 14
e 10 16
e 10 18
e 10 19
e 10 21
e 10 28
e 10 30
e 10 33
e 10 35
e 10 50
e 10 52
e 10 53
e 10 57
e 10 58
e 10 59
e 10 60
e 10 62
e 10 66
e 10 68
e 10 71
e 10 73
e 10 78
e 10 79
e 10 81
e 10 83
e 10 94
e 10 104
e 10 108
e 10 109
e 10 110
e 10 112
e 10 113
e 10 120
e 10 127
e 10 133
e 10 134
e 10 137
e 10 139
e 10 142
e 10 146
e 10 158
e 10 162
e 10 169
e 10 171
e 10 174
e 10 177
e 10 186
e 10 187
e 10 195
e 10 196
e 10 201
e 10 207
e 10 208
e 10 209
e 10 211
e 10 217
e 10 220
e 10 221
e 10 222
e 10 225
e 10 228
e 10 230
e 10 238
e 10 242
e 10 245
e 10 246
e 10 248
e 10 255
e 10 259
e 10 260
e 10 267
e 10 268
e 10 271
e 10 275
e 10 277
e 10 278
e 10 280
e 10 286
e 10 287
e 10 288
e 10 292
e 10 294
e 10 295
e 10 298
e 10 299
e 10 300
e 10 302
e 10 303
e 10 306
e 10 307
e 10 309
e 10 310
e 10 311
e 10 312
e 10 314
e 10 315
e 10 317
e 10 321
e 10 329
e 10 330
e 10 331
e 10 335
e 10 336
e 10 338
e 10 339
e 10 340
e 10 345
e 10 347
e 10 348
e 10 351
e 10 352
e 10 353
e 10 356
e 10 360
e 10 362
e 10 373
e 10 375
e 10 378
e 10 379
e 10 381
e 10 387
e 10 388
e 10 389
e 10 392
e 10 400
e 10 401
e 10 402
e 10 405
e 10 407
e 10 411
e 10 414
e 10 416
e 10 418
e 10 426
e 10 430
e 10 434
e 10 435
e 10 440
e 10 441
e 10 443
e 10 444
e 10 453
e 10 457
e 10 462
e 10 464
e 10 466
e 10 469
e 10 471
e 10 476
e 10 477
e 10 481
e 10 482
e 10 483
e 10 489
e 10 490
e 10 492
e 10 494
e 10 495
e 10 496
e 10 497
e 11 12
e 11 14
e 11 19
e 11 31
e 11 32
e 11 36
e 11 37
e 11 42
e 11 45
e 11 46
e 11 49
e 11 51
e 11 57
e 11 58
e 11 61
e 11 66
e 11 67
e 11 68
e 11 73
e 11 79
e 11 83
e 11 87
e 11 89
e 11 91
e 11 92
e 11 100
e 11 105
e 11 108
e 11 113
e 11 115
e 11 118
e 11 123
e 11 126
e 11 128
e 11 133
e 11 134
e 11 137
e 11 138
e 11 141
e 11 144
e 11 147
e 11 151
e 11 155
e 11 156
e 11 157
e 11 163
e 11 167
e 11 171
e 11 177
e 11 178
e 11 179
e 11 180
e 11 184
e 11 185
e 11 186
e 11 188
e 11 189
e 11 190
e 11 191
e 11 196
e 11 199
e 11 205
e 11 208
e 11 209
e 11 210
e 11 215
e 11 222
e 11 226
e 11 229
e 11 230
e 11 235
e 11 239
e 11 240
e 11 241
e 11 243
e 11 248
e 11 250
e 11 251
e 11 253
e 11 257
e 11 259
e 11 262
e 11 264
e 11 268
e 11 269
e 11 270
e 11 273
e 11 281
e 11 290
e 11 292
e 11 296
e 11 297
e 11 299
e 11 300
e 11 303
e 11 304
e 11 315
e 11 320
e 11 325
e 11 326
e 11 332
e 11 334
e 11 338
e 11 340
e 11 342
e 11 345
e 11 351
e 11 353
e 11 355
e 11 359
e 11 360
e 11 361
e 11 374
e 11 375
e 11 376
e 11 386
e 11 392
e 11 394
e 11 398
e 11 404
e 11 407
e 11 409
e 11 410
e 11 411
e 11 418
e 11 419
e 11 420
e 11 422
e 11 423
e 11 424
e 11 429
e 11 432
e 11 440
e 11 441
e 11 442
e 11 447
e 11 449
e 11 452
e 11 457
e 11 458
e 11 464
e 11 472
e 11 473
e 11 477
e 11 478
e 11 480
e 11 481
e 11 483
e 11 487
e 11 491
e 11 492
e 11 498
e 11 500
e 12 13
e 12 14
e 12 19
e 12 21
e 12 22
e 12 31
e 12 35
e 12 39
e 12 40
e 12 41
e 12 52
e 12 54
e 12 55
e 12 57
e 12 61
e 12 65
e 12 68
e 12 69
e 12 74
e 12 80
e 12 82
e 12 84
e 12 89
e 12 90
e 12 92
e 12 94
e 12 95
e 12 96
e 12 100
e 12 108
e 12 110
e 12 111
e 12 112
e 12 117
e 12 118
e 12 119
e 12 123
e 12 124
e 12 126
e 12 128
e 12 132
e 12 133
e 12 137
e 12 140
e 12 142
e 12 143
e 12 144
e 12 148
e 12 149
e 12 151
e 12 154
e 12 155
e 12 157
e 12 159
e 12 162
e 12 169
e 12 171
e 12 173
e 12 175
e 12 178
e 12 179
e 12 189
e 12 191
e 12 194
e 12 196
e 12 198
e 12 199
e 12 204
e 12 205
e 12 206
e 12 207
e 12 210
e 12 212
e 12 216
e 12 219
e 12 220
e 12 225
e 12 226
e 12 228
e 12 233
e 12 238
e 12 239
e 12 242
e 12 244
e 12 245
e 12 248
e 12 254
e 12 259
e 12 262
e 12 264
e 12 267
e 12 268
e 12 269
e 12 281
e 12 283
e 12 286
e 12 292
e 12 296
e 12 301
e 12 302
e 12 310
e 12 311
e 12 313
e 12 315
e 12 317
e 12 319
e 12 326
e 12 330
e 12 335
e 12 337
e 12 338
e 12 340
e 12 343
e 12 344
e 12 345
e 12 349
e 12 350
e 12 351
e 12 354
e 12 356
e 12 365
e 12 366
e 12 369
e 12 374
e 12 383
e 12 385
e 12 389
e 12 390
e 12 391
e 12 398
e 12 399
e 12 400
e 12 404
e 12 410
e 12 414
e 12 416
e 12 424
e 12 425
e 12 426
e 12 428
e 12 432
e 12 433
e 12 434
e 12 436
e 12 439
e 12 441
e 12 446
e 12 458
e 12 459
e 12 461
e 12 464
e 12 465
e 12 468
e 12 469
e 12 473
e 12 475
e 12 478
e 12 485
e 12 486
e 12 493
e 12 497
e 13 14
e 13 19
e 13 29
e 13 30
e 13 46
e 13 48
e 13 71
e 13 79
e 13 80
e 13 85
e 13 91
e 13 93
e 13 94
e 13 95
e 13 98
e 13 102
e 13 103
e 13 108
e 13 113
e 13 114
e 13 125
e 13 127
e 13 130
e 13 133
e 13 137
e 13 144
e 13 147
e 13 150
e 13 151
e 13 153
e 13 159
e 13 162
e 13 163
e 13 166
e 13 168
e 13 170
e 13 178
e 13 180
e 13 182
e 13 185
e 13 186
e 13 190
e 13 193
e 13 195
e 13 198
e 13 199
e 13 202
e 13 205
e 13 206
e 13 213
e 13 219
e 13 221
e 13 225
e 13 227
e 13 231
e 13 232
e 13 235
e 13 238
e 13 241
e 13 246
e 13 247
e 13 254
e 13 258
e 13 261
e 13 263
e 13 266
e 13 270
e 13 271
e 13 274
e 13 279
e 13 281
e 13 284
e 13 285
e 13 287
e 13 288
e 13 289
e 13 292
e 13 297
e 13 298
e 13 302
e 13 307
e 13 308
e 13 309
e 13 312
e 13 314
e 13 315
e 13 317
e 13 319
e 13 321
e 13 322
e 13 324
e 13 328
e 13 330
e 13 332
e 13 333
e 13 337
e 13 339
e 13 342
e 13 346
e 13 348
e 13 349
e 13 353
e 13 354
e 13 359
e 13 361
e 13 364
e 13 370
e 13 372
e 13 374
e 13 378
e 13 379
e 13 382
e 13 394
e 13 398
e 13 399
e 13 400
e 13 401
e 13 405
e 13 408
e 13 411
e 13 413
e 13 418
e 13 420
e 13 421
e 13 428
e 13 430
e 13 435
e 13 438
e 13 440
e 13 445
e 13 446
e 13 447
e 13 448
e 13 450
e 13 452
e 13 458
e 13 459
e 13 460
e 13 461
e 13 469
e 13 471
e 13 473
e 13 477
e 13 484
e 13 485
e 13 486
e 13 495
e 14 16
e 14 17
e 14 18
e 14 19
e 14 23
e 14 25
e 14 27
e 14 29
e 14 30
e 14 35
e 14 41
e 14 43
e 14 47
e 14 51
e 14 59
e 14 61
e 14 66
e 14 72
e 14 73
e 14 79
e 14 86
e 14 88
e 14 91
e 14 95
e 14 103
e 14 105
e 14 116
e 14 120
e 14 121
e 14 132
e 14 134
e 14 135
e 14 136
e 14 137
e 14 138
e 14 143
e 14 145
e 14 152
e 14 153
e 14 157
e 14 160
e 14 164
e 14 165
e 14 168
e 14 175
e 14 176
e 14 179
e 14 183
e 14 184
e 14 192
e 14 197
e 14 200
e 14 204
e 14 205
e 14 209
e 14 211
e 14 212
e 14 214
e 14 217
e 14 219
e 14 220
e 14 223
e 14 227
e 14 228
e 14 235
e 14 242
e 14 243
e 14 244
e 14 245
e 14 251
e 14 253
e 14 256
e 14 257
e 14 261
e 14 265
e 14 270
e 14 274
e 14 275
e 14 276
e 14 277
e 14 278
e 14 282
e 14 283
e 14 290
e 14 291
e 14 296
e 14 298
e 14 300
e 14 301
e 14 302
e 14 309
e 14 320
e 14 323
e 14 330
e 14 332
e 14 333
e 14 335
e 14 341
e 14 347
e 14 348
e 14 350
e 14 352
e 14 357
e 14 359
e 14 360
e 14 364
e 14 370
e 14 373
e 14 374
e 14 379
e 14 380
e 14 384
e 14 386
e 14 389
e 14 391
e 14 392
e 14 395
e 14 406
e 14 409
e 14 413
e 14 415
e 14 423
e 14 428
e 14 436
e 14 443
e 14 445
e 14 447
e 14 449
e 14 450
e 14 452
e 14 453
e 14 455
e 14 463
e 14 467
e 14 468
e 14 471
e 14 472
e 14 476
e 14 479
e 14 483
e 14 486
e 14 488
e 14 491
e 14 493
e 14 496
e 14 498
e 15 20
e 15 26
e 15 28
e 15 38
e 15 39
e 15 41
e 15 42
e 15 44
e 15 47
e 15 49
e 15 50
e 15 56
e 15 58
e 15 62
e 15 64
e 15 66
e 15 72
e 15 73
e 15 81
e 15 88
e 15 91
e 15 92
e 15 97
e 15 101
e 15 109
e 15 112
e 15 113
e 15 115
e 15 116
e 15 117
e 15 123
e 15 124
e 15 129
e 15 135
e 15 136
e 15 141
e 15 142
e 15 144
e 15 146
e 15 148
e 15 154
e 15 165
e 15 166
e 15 167
e 15 172
e 15 173
e 15 174
e 15 175
e 15 181
e 15 183
e 15 184
e 15 186
e 15 190
e 15 201
e 15 202
e 15 203
e 15 208
e 15 209
e 15 210
e 15 212
e 15 213
e 15 214
e 15 217
e 15 219
e 15 226
e 15 234
e 15 235
e 15 237
e 15 239
e 15 241
e 15 242
e 15 244
e 15 248
e 15 250
e 15 255
e 15 259
e 15 260
e 15 261
e 15 262
e 15 264
e 15 267
e 15 270
e 15 283
e 15 285
e 15 288
e 15 292
e 15 293
e 15 294
e 15 297
e 15 299
e 15 302
e 15 307
e 15 309
e 15 310
e 15 312
e 15 316
e 15 320
e 15 322
e 15 326
e 15 335
e 15 342
e 15 346
e 15 353
e 15 354
e 15 355
e 15 356
e 15 365
e 15 366
e 15 368
e 15 369
e 15 370
e 15 371
e 15 372
e 15 376
e 15 377
e 15 378
e 15 381
e 15 388
e 15 390
e 15 391
e 15 392
e 15 394
e 15 395
e 15 396
e 15 397
e 15 401
e 15 405
e 15 410
e 15 413
e 15 423
e 15 424
e 15 429
e 15 435
e 15 436
e 15 440
e 15 443
e 15 444
e 15 445
e 15 447
e 15 453
e 15 456
e 15 458
e 15 459
e 15 460
e 15 463
e 15 467
e 15 472
e 15 478
e 15 480
e 15 483
e 15 484
e 15 490
e 15 491
e 15 495
e 15 496
e 15 497
e 15 498
e 15 500
e 16 25
e 16 27
e 16 29
e 16 33
e 16 41
e 16 42
e 16 47
e 16 48
e 16 49
e 16 54
e 16 60
e 16 67
e 16 70
e 16 71
e 16 75
e 16 80
e 16 84
e 16 85
e 16 87
e 16 88
e 16 89
e 16 93
e 16 95
e 16 96
e 16 97
e 16 98
e 16 103
e 16 107
e 16 108
e 16 112
e 16 116
e 16 118
e 16 119
e 16 125
e 16 127
e 16 128
e 16 134
e 16 139
e 16 140
e 16 143
e 16 144
e 16 150
e 16 151
e 16 152
e 16 159
e 16 160
e 16 163
e 16 165
e 16 167
e 16 168
e 16 172
e 16 173
e 16 174
e 16 175
e 16 176
e 16 177
e 16 179
e 16 182
e 16 183
e 16 185
e 16 186
e 16 188
e 16 195
e 16 198
e 16 203
e 16 211
e 16 212
e 16 214
e 16 215
e 16 216
e 16 217
e 16 219
e 16 223
e 16 225
e 16 226
e 16 228
e 16 236
e 16 237
e 16 238
e 16 242
e 16 246
e 16 249
e 16 250
e 16 254
e 16 258
e 16 259
e 16 260
e 16 263
e 16 269
e 16 270
e 16 271
e 16 273
e 16 276
e 16 278
e 16 281
e 16 286
e 16 287
e 16 293
e 16 301
e 16 312
e 16 315
e 16 316
e 16 317
e 16 318
e 16 328
e 16 329
e 16 330
e 16 331
e 16 332
e 16 333
e 16 336
e 16 339
e 16 346
e 16 348
e 16 349
e 16 350
e 16 356
e 16 357
e 16 358
e 16 360
e 16 364
e 16 366
e 16 367
e 16 376
e 16 377
e 16 379
e 16 380
e 16 384
e 16 387
e 16 388
e 16 395
e 16 396
e 16 398
e 16 405
e 16 407
e 16 408
e 16 410
e 16 412
e 16 417
e 16 423
e 16 426
e 16 427
e 16 429
e 16 430
e 16 432
e 16 435
e 16 437
e 16 442
e 16 445
e 16 447
e 16 448
e 16 449
e 16 451
e 16 458
e 16 461
e 16 462
e 16 463
e 16 465
e 16 470
e 16 471
e 16 474
e 16 477
e 16 479
e 16 480
e 16 485
e 16 486
e 16 489
e 16 496
e 17 23
e 17 35
e 17 38
e 17 47
e 17 57
e 17 59
e 17 60
e 17 64
e 17 65
e 17 66
e 17 71
e 17 72
e 17 76
e 17 77
e 17 79
e 17 80
e 17 83
e 17 86
e 17 87
e 17 88
e 17 101
e 17 109
e 17 115
e 17 117
e 17 118
e 17 120
e 17 124
e 17 126
e 17 127
e 17 128
e 17 137
e 17 140
e 17 141
e 17 142
e 17 146
e 17 147
e 17 149
e 17 151
e 17 157
e 17 158
e 17 164
e 17 167
e 17 174
e 17 176
e 17 180
e 17 185
e 17 186
e 17 190
e 17 191
e 17 193
e 17 194
e 17 201
e 17 203
e 17 206
e 17 207
e 17 210
e 17 214
e 17 217
e 17 218
e 17 224
e 17 228
e 17 230
e 17 232
e 17 233
e 17 239
e 17 251
e 17 252
e 17 262
e 17 263
e 17 265
e 17 276
e 17 281
e 17 288
e 17 289
e 17 292
e 17 294
e 17 298
e 17 304
e 17 305
e 17 308
e 17 309
e 17 311
e 17 314
e 17 321
e 17 324
e 17 333
e 17 336
e 17 341
e 17 344
e 17 348
e 17 351
e 17 353
e 17 354
e 17 355
e 17 359
e 17 362
e 17 363
e 17 367
e 17 371
e 17 373
e 17 376
e 17 378
e 17 391
e 17 392
e 17 393
e 17 397
e 17 398
e 17 399
e 17 403
e 17 404
e 17 406
e 17 411
e 17 414
e 17 415
e 17 426
e 17 430
e 17 432
e 17 439
e 17 440
e 17 446
e 17 447
e 17 451
e 17 457
e 17 460
e 17 471
e 17 476
e 17 481
e 17 482
e 17 484
e 17 488
e 17 490
e 17 492
e 17 493
e 17 500
e 18 21
e 18 26
e 18 30
e 18 32
e 18 34
e 18 35
e 18 38
e 18 39
e 18 45
e 18 47
e 18 51
e 18 52
e 18 53
e 18 58
e 18 62
e 18 63
e 18 65
e 18 66
e 18 70
e 18 73
e 18 77
e 18 81
e 18 83
e 18 92
e 18 93
e 18 94
e 18 95
e 18 97
e 18 100
e 18 105
e 18 113
e 18 118
e 18 119
e 18 122
e 18 123
e 18 124
e 18 127
e 18 128
e 18 129
e 18 133
e 18 139
e 18 143
e 18 144
e 18 147
e 18 152
e 18 153
e 18 154
e 18 155
e 18 157
e 18 165
e 18 166
e 18 167
e 18 168
e 18 170
e 18 171
e 18 172
e 18 174
e 18 178
e 18 179
e 18 183
e 18 191
e 18 194
e 18 196
e 18 197
e 18 198
e 18 200
e 18 202
e 18 209
e 18 213
e 18 217
e 18 219
e 18 228
e 18 231
e 18 237
e 18 238
e 18 239
e 18 247
e 18 248
e 18 253
e 18 254
e 18 256
e 18 262
e 18 264
e 18 265
e 18 267
e 18 269
e 18 270
e 18 273
e 18 285
e 18 290
e 18 296
e 18 297
e 18 299
e 18 300
e 18 302
e 18 305
e 18 322
e 18 327
e 18 330
e 18 331
e 18 339
e 18 340
e 18 342
e 18 345
e 18 352
e 18 353
e 18 358
e 18 359
e 18 362
e 18 365
e 18 367
e 18 368
e 18 370
e 18 371
e 18 377
e 18 381
e 18 385
e 18 386
e 18 390
e 18 396
e 18 398
e 18 403
e 18 404
e 18 405
e 18 407
e 18 419
e 18 420
e 18 424
e 18 425
e 18 433
e 18 434
e 18 436
e 18 444
e 18 446
e 18 448
e 18 450
e 18 452
e 18 456
e 18 457
e 18 460
e 18 461
e 18 470
e 18 474
e 18 478
e 18 485
e 18 491
e 18 492
e 18 493
e 18 495
e 18 497
e 18 500
e 19 24
e 19 28
e 19 31
e 19 33
e 19 35
e 19 40
e 19 42
e 19 47
e 19 50
e 19 52
e 19 53
e 19 55
e 19 60
e 19 63
e 19 65
e 19 67
e 19 72
e 19 74
e 19 83
e 19 85
e 19 88
e 19 90
e 19 98
e 19 100
e 19 101
e 19 103
e 19 105
e 19 115
e 19 116
e 19 117
e 19 120
e 19 121
e 19 123
e 19 126
e 19 127
e 19 129
e 19 131
e 19 132
e 19 136
e 19 138
e 19 139
e 19 143
e 19 146
e 19 149
e 19 151
e 19 152
e 19 160
e 19 161
e 19 167
e 19 168
e 19 171
e 19 172
e 19 174
e 19 181
e 19 185
e 19 189
e 19 190
e 19 199
e 19 203
e 19 206
e 19 210
e 19 217
e 19 219
e 19 229
e 19 230
e 19 231
e 19 232
e 19 234
e 19 240
e 19 241
e 19 245
e 19 247
e 19 250
e 19 252
e 19 255
e 19 259
e 19 262
e 19 263
e 19 265
e 19 266
e 19 267
e 19 269
e 19 278
e 19 280
e 19 283
e 19 290
e 19 292
e 19 293
e 19 294
e 19 296
e 19 300
e 19 302
e 19 306
e 19 311
e 19 314
e 19 315
e 19 318
e 19 320
e 19 323
e 19 328
e 19 337
e 19 338
e 19 340
e 19 341
e 19 344
e 19 350
e 19 351
e 19 352
e 19 356
e 19 360
e 19 363
e 19 367
e 19 368
e 19 369
e 19 373
e 19 374
e 19 378
e 19 381
e 19 383
e 19 384
e 19 385
e 19 390
e 19 393
e 19 397
e 19 399
e 19 401
e 19 405
e 19 412
e 19 414
e 19 417
e 19 419
e 19 422
e 19 427
e 19 428
e 19 430
e 19 432
e 19 437
e 19 439
e 19 440
e 19 444
e 19 447
e 19 451
e 19 453
e 19 462
e 19 466
e 19 471
e 19 472
e 19 479
e 19 485
e 19 488
e 19 490
e 19 492
e 19 495
e 20 21
e 20 28
e 20 30
e 20 38
e 20 39
e 20 44
e 20 46
e 20 47
e 20 48
e 20 54
e 20 61
e 20 62
e 20 63
e 20 64
e 20 72
e 20 73
e 20 75
e 20 79
e 20 80
e 20 83
e 20 84
e 20 91
e 20 92
e 20 93
e 20 95
e 20 98
e 20 99
e 20 102
e 20 103
e 20 104
e 20 108
e 20 112
e 20 114
e 20 118
e 20 119
e 20 122
e 20 124
e 20 128
e 20 129
e 20 134
e 20 136
e 20 153
e 20 154
e 20 155
e 20 158
e 20 159
e 20 166
e 20 171
e 20 178
e 20 181
e 20 182
e 20 183
e 20 185
e 20 187
e 20 188
e 20 192
e 20 197
e 20 200
e 20 202
e 20 204
e 20 205
e 20 206
e 20 209
e 20 210
e 20 214
e 20 218
e 20 222
e 20 223
e 20 226
e 20 234
e 20 235
e 20 241
e 20 243
e 20 248
e 20 249
e 20 251
e 20 254
e 20 255
e 20 256
e 20 257
e 20 259
e 20 266
e 20 279
e 20 284
e 20 286
e 20 291
e 20 295
e 20 296
e 20 309
e 20 311
e 20 314
e 20 315
e 20 316
e 20 319
e 20 324
e 20 327
e 20 334
e 20 336
e 20 337
e 20 344
e 20 348
e 20 353
e 20 357
e 20 359
e 20 360
e 20 364
e 20 371
e 20 372
e 20 375
e 20 381
e 20 382
e 20 384
e 20 386
e 20 388
e 20 404
e 20 411
e 20 414
e 20 418
e 20 419
e 20 421
e 20 427
e 20 430
e 20 436
e 20 446
e 20 447
e 20 452
e 20 453
e 20 461
e 20 463
e 20 464
e 20 466
e 20 467
e 20 469
e 20 474
e 20 481
e 20 485
e 20 488
e 20 490
e 20 491
e 20 493
e 20 494
e 20 500
e 21 22
e 21 25
e 21 26
e 21 35
e 21 36
e 21 37
e 21 39
e 21 41
e 21 52
e 21 53
e 21 57
e 21 62
e 21 63
e 21 70
e 21 72
e 21 77
e 21 79
e 21 80
e 21 85
e 21 88
e 21 99
e 21 107
e 21 109
e 21 111
e 21 112
e 21 113
e 21 122
e 21 123
e 21 124
e 21 127
e 21 132
e 21 137
e 21 149
e 21 152
e 21 156
e 21 160
e 21 161
e 21 162
e 21 165
e 21 166
e 21 167
e 21 168
e 21 169
e 21 174
e 21 175
e 21 180
e 21 189
e 21 192
e 21 194
e 21 204
e 21 208
e 21 212
e 21 213
e 21 217
e 21 219
e 21 221
e 21 222
e 21 225
e 21 227
e 21 231
e 21 232
e 21 233
e 21 237
e 21 249
e 21 250
e 21 254
e 21 257
e 21 258
e 21 266
e 21 268
e 21 276
e 21 277
e 21 278
e 21 283
e 21 287
e 21 290
e 21 291
e 21 296
e 21 299
e 21 318
e 21 320
e 21 321
e 21 322
e 21 323
e 21 324
e 21 329
e 21 337
e 21 338
e 21 340
e 21 351
e 21 352
e 21 355
e 21 357
e 21 358
e 21 359
e 21 367
e 21 375
e 21 376
e 21 377
e 21 384
e 21 387
e 21 388
e 21 392
e 21 393
e 21 397
e 21 410
e 21 414
e 21 417
e 21 429
e 21 436
e 21 439
e 21 440
e 21 442
e 21 444
e 21 445
e 21 446
e 21 452
e 21 460
e 21 462
e 21 463
e 21 466
e 21 468
e 21 469
e 21 478
e 21 480
e 21 489
e 21 493
e 21 496
e 21 497
e 21 498
e 22 25
e 22 32
e 22 33
e 22 34
e 22 35
e 22 36
e 22 39
e 22 42
e 22 46
e 22 49
e 22 50
e 22 53
e 22 54
e 22 56
e 22 66
e 22 67
e 22 69
e 22 77
e 22 78
e 22 85
e 22 86
e 22 89
e 22 94
e 22 96
e 22 98
e 22 99
e 22 107
e 22 109
e 22 113
e 22 116
e 22 124
e 22 127
e 22 129
e 22 130
e 22 132
e 22 136
e 22 141
e 22 145
e 22 146
e 22 147
e 22 148
e 22 150
e 22 152
e 22 153
e 22 158
e 22 159
e 22 162
e 22 165
e 22 171
e 22 173
e 22 179
e 22 193
e 22 198
e 22 199
e 22 202
e 22 204
e 22 207
e 22 208
e 22 209
e 22 210
e 22 211
e 22 217
e 22 222
e 22 225
e 22 229
e 22 235
e 22 238
e 22 240
e 22 241
e 22 242
e 22 243
e 22 247
e 22 256
e 22 257
e 22 258
e 22 260
e 22 263
e 22 266
e 22 269
e 22 275
e 22 277
e 22 281
e 22 287
e 22 288
e 22 289
e 22 292
e 22 294
e 22 297
e 22 305
e 22 312
e 22 314
e 22 317
e 22 328
e 22 329
e 22 335
e 22 336
e 22 338
e 22 339
e 22 341
e 22 343
e 22 344
e 22 350
e 22 355
e 22 356
e 22 361
e 22 365
e 22 368
e 22 371
e 22 372
e 22 373
e 22 374
e 22 378
e 22 379
e 22 381
e 22 384
e 22 393
e 22 400
e 22 401
e 22 402
e 22 405
e 22 409
e 22 411
e 22 414
e 22 415
e 22 417
e 22 425
e 22 434
e 22 440
e 22 441
e 22 442
e 22 448
e 22 454
e 22 458
e 22 473
e 22 477
e 22 478
e 22 484
e 22 485
e 22 486
e 22 487
e 22 488
e 22 491
e 22 492
e 22 494
e 23 24
e 23 25
e 23 26
e 23 29
e 23 30
e 23 35
e 23 53
e 23 61
e 23 62
e 23 70
e 23 71
e 23 77
e 23 84
e 23 87
e 23 94
e 23 95
e 23 98
e 23 106
e 23 107
e 23 114
e 23 116
e 23 118
e 23 123
e 23 124
e 23 125
e 23 127
e 23 130
e 23 131
e 23 132
e 23 135
e 23 138
e 23 139
e 23 143
e 23 145
e 23 147
e 23 151
e 23 152
e 23 153
e 23 154
e 23 164
e 23 167
e 23 168
e 23 178
e 23 185
e 23 189
e 23 193
e 23 194
e 23 195
e 23 197
e 23 198
e 23 199
e 23 201
e 23 206
e 23 213
e 23 218
e 23 224
e 23 229
e 23 231
e 23 233
e 23 234
e 23 235
e 23 238
e 23 239
e 23 240
e 23 242
e 23 245
e 23 246
e 23 258
e 23 265
e 23 266
e 23 280
e 23 282
e 23 287
e 23 289
e 23 292
e 23 294
e 23 298
e 23 299
e 23 301
e 23 303
e 23 304
e 23 307
e 23 309
e 23 311
e 23 312
e 23 315
e 23 317
e 23 320
e 23 332
e 23 336
e 23 341
e 23 350
e 23 352
e 23 353
e 23 355
e 23 360
e 23 365
e 23 373
e 23 376
e 23 378
e 23 379
e 23 380
e 23 381
e 23 387
e 23 395
e 23 396
e 23 397
e 23 398
e 23 401
e 23 407
e 23 408
e 23 409
e 23 410
e 23 413
e 23 417
e 23 422
e 23 429
e 23 430
e 23 436
e 23 437
e 23 442
e 23 447
e 23 448
e 23 449
e 23 451
e 23 454
e 23 455
e 23 457
e 23 467
e 23 468
e 23 475
e 23 476
e 23 487
e 23 489
e 23 491
e 23 492
e 23 495
e 23 497
e 23 498
e 24 25
e 24 26
e 24 27
e 24 28
e 24 32
e 24 33
e 24 40
e 24 41
e 24 45
e 24 47
e 24 52
e 24 56
e 24 58
e 24 59
e 24 61
e 24 62
e 24 72
e 24 80
e 24 83
e 24 85
e 24 88
e 24 91
e 24 96
e 24 97
e 24 101
e 24 104
e 24 107
e 24 111
e 24 112
e 24 119
e 24 120
e 24 129
e 24 131
e 24 133
e 24 135
e 24 137
e 24 140
e 24 141
e 24 143
e 24 147
e 24 148
e 24 150
e 24 154
e 24 159
e 24 161
e 24 166
e 24 170
e 24 171
e 24 172
e 24 173
e 24 176
e 24 180
e 24 183
e 24 186
e 24 191
e 24 194
e 24 195
e 24 200
e 24 203
e 24 204
e 24 205
e 24 206
e 24 214
e 24 215
e 24 216
e 24 218
e 24 219
e 24 221
e 24 222
e 24 231
e 24 235
e 24 242
e 24 243
e 24 245
e 24 246
e 24 247
e 24 249
e 24 250
e 24 251
e 24 261
e 24 265
e 24 267
e 24 272
e 24 279
e 24 281
e 24 286
e 24 293
e 24 301
e 24 304
e 24 306
e 24 315
e 24 316
e 24 320
e 24 321
e 24 322
e 24 323
e 24 324
e 24 325
e 24 327
e 24 338
e 24 340
e 24 342
e 24 344
e 24 347
e 24 352
e 24 355
e 24 360
e 24 361
e 24 371
e 24 373
e 24 374
e 24 377
e 24 385
e 24 387
e 24 389
e 24 396
e 24 399
e 24 403
e 24 409
e 24 410
e 24 419
e 24 424
e 24 425
e 24 427
e 24 428
e 24 432
e 24 433
e 24 434
e 24 436
e 24 444
e 24 446
e 24 458
e 24 467
e 24 470
e 24 473
e 24 475
e 24 479
e 24 489
e 24 490
e 24 491
e 25 26
e 25 32
e 25 37
e 25 38
e 25 46
e 25 49
e 25 52
e 25 53
e 25 55
e 25 56
e 25 57
e 25 64
e 25 69
e 25 73
e 25 74
e 25 77
e 25 86
e 25 87
e 25 89
e 25 90
e 25 91
e 25 92
e 25 98
e 25 99
e 25 100
e 25 101
e 25 104
e 25 108
e 25 109
e 25 111
e 25 114
e 25 122
e 25 124
e 25 127
e 25 128
e 25 131
e 25 132
e 25 133
e 25 138
e 25 139
e 25 140
e 25 146
e 25 147
e 25 148
e 25 159
e 25 170
e 25 173
e 25 174
e 25 177
e 25 182
e 25 184
e 25 185
e 25 191
e 25 193
e 25 195
e 25 197
e 25 198
e 25 199
e 25 200
e 25 204
e 25 206
e 25 209
e 25 210
e 25 214
e 25 216
e 25 219
e 25 223
e 25 227
e 25 231
e 25 232
e 25 236
e 25 239
e 25 241
e 25 243
e 25 254
e 25 255
e 25 263
e 25 264
e 25 265
e 25 269
e 25 270
e 25 271
e 25 273
e 25 275
e 25 287
e 25 288
e 25 289
e 25 290
e 25 292
e 25 293
e 25 294
e 25 296
e 25 301
e 25 303
e 25 308
e 25 313
e 25 314
e 25 322
e 25 323
e 25 325
e 25 328
e 25 329
e 25 338
e 25 339
e 25 344
e 25 345
e 25 351
e 25 353
e 25 357
e 25 358
e 25 361
e 25 362
e 25 366
e 25 367
e 25 369
e 25 370
e 25 371
e 25 382
e 25 384
e 25 385
e 25 386
e 25 390
e 25 391
e 25 407
e 25 411
e 25 416
e 25 417
e 25 422
e 25 425
e 25 429
e 25 432
e 25 434
e 25 435
e 25 441
e 25 445
e 25 456
e 25 459
e 25 460
e 25 469
e 25 476
e 25 485
e 25 486
e 25 491
e 25 495
e 25 496
e 25 499
e 25 500
e 26 29
e 26 31
e 26 33
e 26 35
e 26 38
e 26 40
e 26 47
e 26 51
e 26 52
e 26 55
e 26 60
e 26 62
e 26 63
e 26 66
e 26 75
e 26 79
e 26 80
e 26 83
e 26 84
e 26 85
e 26 86
e 26 87
e 26 96
e 26 103
e 26 110
e 26 111
e 26 113
e 26 121
e 26 124
e 26 125
e 26 132
e 26 135
e 26 140
e 26 150
e 26 152
e 26 158
e 26 160
e 26 164
e 26 172
e 26 175
e 26 179
e 26 180
e 26 183
e 26 185
e 26 189
e 26 190
e 26 194
e 26 198
e 26 199
e 26 202
e 26 204
e 26 205
e 26 210
e 26 214
e 26 216
e 26 220
e 26 222
e 26 223
e 26 229
e 26 230
e 26 233
e 26 234
e 26 235
e 26 236
e 26 239
e 26 242
e 26 244
e 26 251
e 26 252
e 26 255
e 26 265
e 26 266
e 26 267
e 26 275
e 26 279
e 26 281
e 26 286
e 26 288
e 26 294
e 26 296
e 26 297
e 26 298
e 26 299
e 26 315
e 26 319
e 26 323
e 26 324
e 26 329
e 26 333
e 26 334
e 26 340
e 26 343
e 26 346
e 26 348
e 26 353
e 26 359
e 26 363
e 26 364
e 26 366
e 26 368
e 26 371
e 26 375
e 26 377
e 26 379
e 26 380
e 26 381
e 26 388
e 26 397
e 26 398
e 26 401
e 26 402
e 26 404
e 26 405
e 26 406
e 26 411
e 26 413
e 26 415
e 26 417
e 26 420
e 26 430
e 26 431
e 26 441
e 26 442
e 26 444
e 26 445
e 26 446
e 26 447
e 26 450
e 26 453
e 26 457
e 26 459
e 26 465
e 26 466
e 26 468
e 26 470
e 26 475
e 26 479
e 26 488
e 26 492
e 26 495
e 26 498
e 26 500
e 27 30
e 27 36
e 27 38
e 27 39
e 27 43
e 27 56
e 27 59
e 27 62
e 27 65
e 27 70
e 27 71
e 27 73
e 27 74
e 27 75
e 27 82
e 27 87
e 27 90
e 27 91
e 27 92
e 27 98
e 27 100
e 27 105
e 27 107
e 27 108
e 27 118
e 27 121
e 27 123
e 27 124
e 27 128
e 27 129
e 27 132
e 27 133
e 27 135
e 27 146
e 27 147
e 27 153
e 27 155
e 27 156
e 27 157
e 27 159
e 27 162
e 27 163
e 27 169
e 27 176
e 27 179
e 27 184
e 27 185
e 27 187
e 27 188
e 27 193
e 27 195
e 27 197
e 27 203
e 27 204
e 27 206
e 27 208
e 27 209
e 27 211
e 27 213
e 27 219
e 27 222
e 27 228
e 27 230
e 27 235
e 27 249
e 27 252
e 27 255
e 27 259
e 27 268
e 27 269
e 27 274
e 27 281
e 27 283
e 27 287
e 27 292
e 27 295
e 27 305
e 27 310
e 27 312
e 27 314
e 27 316
e 27 318
e 27 319
e 27 322
e 27 336
e 27 337
e 27 342
e 27 351
e 27 352
e 27 353
e 27 357
e 27 360
e 27 364
e 27 366
e 27 370
e 27 382
e 27 383
e 27 384
e 27 386
e 27 387
e 27 389
e 27 393
e 27 395
e 27 397
e 27 398
e 27 402
e 27 406
e 27 408
e 27 410
e 27 419
e 27 421
e 27 422
e 27 433
e 27 435
e 27 443
e 27 445
e 27 448
e 27 451
e 27 454
e 27 456
e 27 461
e 27 464
e 27 467
e 27 468
e 27 470
e 27 479
e 27 481
e 27 482
e 27 485
e 27 486
e 27 492
e 27 496
e 27 500
e 28 31
e 28 33
e 28 34
e 28 35
e 28 48
e 28 51
e 28 53
e 28 55
e 28 59
e 28 67
e 28 68
e 28 73
e 28 77
e 28 78
e 28 81
e 28 85
e 28 90
e 28 91
e 28 92
e 28 96
e 28 101
e 28 103
e 28 106
e 28 107
e 28 108
e 28 110
e 28 117
e 28 126
e 28 135
e 28 136
e 28 138
e 28 139
e 28 140
e 28 141
e 28 142
e 28 147
e 28 148
e 28 149
e 28 153
e 28 160
e 28 161
e 28 162
e 28 165
e 28 169
e 28 178
e 28 181
e 28 190
e 28 192
e 28 194
e 28 195
e 28 196
e 28 197
e 28 200
e 28 206
e 28 209
e 28 211
e 28 213
e 28 216
e 28 220
e 28 225
e 28 240
e 28 242
e 28 246
e 28 250
e 28 254
e 28 255
e 28 256
e 28 258
e 28 259
e 28 266
e 28 269
e 28 274
e 28 275
e 28 276
e 28 277
e 28 278
e 28 281
e 28 283
e 28 284
e 28 286
e 28 287
e 28 292
e 28 297
e 28 305
e 28 313
e 28 316
e 28 326
e 28 328
e 28 330
e 28 341
e 28 342
e 28 348
e 28 354
e 28 355
e 28 357
e 28 360
e 28 362
e 28 371
e 28 373
e 28 374
e 28 377
e 28 378
e 28 384
e 28 386
e 28 389
e 28 416
e 28 419
e 28 432
e 28 433
e 28 434
e 28 435
e 28 437
e 28 438
e 28 440
e 28 441
e 28 443
e 28 445
e 28 446
e 28 447
e 28 448
e 28 449
e 28 453
e 28 455
e 28 456
e 28 458
e 28 459
e 28 460
e 28 461
e 28 464
e 28 469
e 28 470
e 28 471
e 28 472
e 28 475
e 28 481
e 28 482
e 28 483
e 28 486
e 28 487
e 28 490
e 28 493
e 28 495
e 28 500
e 29 32
e 29 34
e 29 37
e 29 39
e 29 40
e 29 48
e 29 51
e 29 54
e 29 55
e 29 57
e 29 61
e 29 63
e 29 64
e 29 65
e 29 68
e 29 73
e 29 74
e 29 75
e 29 77
e 29 78
e 29 80
e 29 88
e 29 98
e 29 101
e 29 102
e 29 103
e 29 113
e 29 114
e 29 116
e 29 117
e 29 126
e 29 127
e 29 129
e 29 131
e 29 132
e 29 133
e 29 134
e 29 135
e 29 137
e 29 148
e 29 150
e 29 154
e 29 155
e 29 158
e 29 166
e 29 169
e 29 170
e 29 177
e 29 178
e 29 181
e 29 183
e 29 190
e 29 191
e 29 192
e 29 193
e 29 194
e 29 195
e 29 198
e 29 201
e 29 204
e 29 207
e 29 211
e 29 214
e 29 216
e 29 219
e 29 220
e 29 221
e 29 222
e 29 225
e 29 233
e 29 234
e 29 237
e 29 240
e 29 248
e 29 252
e 29 253
e 29 257
e 29 262
e 29 265
e 29 270
e 29 271
e 29 273
e 29 275
e 29 276
e 29 279
e 29 280
e 29 283
e 29 284
e 29 288
e 29 289
e 29 291
e 29 294
e 29 295
e 29 297
e 29 298
e 29 301
e 29 306
e 29 307
e 29 311
e 29 323
e 29 324
e 29 326
e 29 327
e 29 332
e 29 334
e 29 335
e 29 339
e 29 340
e 29 342
e 29 349
e 29 353
e 29 354
e 29 364
e 29 368
e 29 370
e 29 371
e 29 373
e 29 377
e 29 381
e 29 382
e 29 384
e 29 385
e 29 388
e 29 390
e 29 393
e 29 395
e 29 399
e 29 402
e 29 406
e 29 409
e 29 412
e 29 414
e 29 417
e 29 428
e 29 430
e 29 431
e 29 432
e 29 434
e 29 436
e 29 437
e 29 453
e 29 455
e 29 456
e 29 457
e 29 458
e 29 464
e 29 468
e 29 470
e 29 472
e 29 474
e 29 479
e 29 482
e 29 487
e 29 491
e 29 492
e 29 494
e 29 496
e 29 497
e 29 498
e 29 499
e 30 32
e 30 35
e 30 41
e 30 42
e 30 43
e 30 49
e 30 52
e 30 53
e 30 55
e 30 56
e 30 57
e 30 66
e 30 68
e 30 71
e 30 73
e 30 79
e 30 80
e 30 81
e 30 86
e 30 96
e 30 100
e 30 107
e 30 110
e 30 112
e 30 113
e 30 114
e 30 116
e 30 117
e 30 118
e 30 122
e 30 125
e 30 130
e 30 138
e 30 147
e 30 152
e 30 157
e 30 159
e 30 162
e 30 167
e 30 169
e 30 171
e 30 175
e 30 183
e 30 187
e 30 188
e 30 190
e 30 192
e 30 193
e 30 197
e 30 198
e 30 207
e 30 210
e 30 219
e 30 220
e 30 229
e 30 230
e 30 231
e 30 233
e 30 235
e 30 236
e 30 242
e 30 249
e 30 250
e 30 256
e 30 258
e 30 260
e 30 261
e 30 263
e 30 265
e 30 266
e 30 269
e 30 270
e 30 278
e 30 280
e 30 281
e 30 282
e 30 283
e 30 284
e 30 290
e 30 294
e 30 295
e 30 298
e 30 299
e 30 301
e 30 302
e 30 303
e 30 306
e 30 307
e 30 314
e 30 316
e 30 317
e 30 329
e 30 332
e 30 339
e 30 348
e 30 354
e 30 355
e 30 356
e 30 357
e 30 362
e 30 364
e 30 365
e 30 368
e 30 370
e 30 373
e 30 385
e 30 393
e 30 397
e 30 403
e 30 412
e 30 413
e 30 416
e 30 417
e 30 420
e 30 421
e 30 423
e 30 424
e 30 432
e 30 435
e 30 437
e 30 438
e 30 441
e 30 444
e 30 452
e 30 461
e 30 462
e 30 466
e 30 468
e 30 472
e 30 475
e 30 482
e 30 488
e 30 491
e 31 40
e 31 42
e 31 50
e 31 62
e 31 63
e 31 64
e 31 71
e 31 72
e 31 74
e 31 76
e 31 79
e 31 88
e 31 93
e 31 94
e 31 96
e 31 97
e 31 98
e 31 99
e 31 105
e 31 106
e 31 108
e 31 124
e 31 129
e 31 130
e 31 132
e 31 135
e 31 141
e 31 143
e 31 145
e 31 149
e 31 151
e 31 154
e 31 160
e 31 162
e 31 166
e 31 175
e 31 178
e 31 182
e 31 183
e 31 194
e 31 200
e 31 201
e 31 204
e 31 205
e 31 206
e 31 208
e 31 209
e 31 215
e 31 216
e 31 221
e 31 223
e 31 224
e 31 228
e 31 229
e 31 230
e 31 232
e 31 240
e 31 244
e 31 247
e 31 249
e 31 253
e 31 255
e 31 261
e 31 263
e 31 266
e 31 267
e 31 268
e 31 273
e 31 276
e 31 277
e 31 280
e 31 285
e 31 289
e 31 291
e 31 295
e 31 296
e 31 300
e 31 304
e 31 306
e 31 309
e 31 313
e 31 315
e 31 316
e 31 320
e 31 324
e 31 328
e 31 333
e 31 338
e 31 339
e 31 344
e 31 345
e 31 350
e 31 351
e 31 361
e 31 362
e 31 366
e 31 368
e 31 369
e 31 370
e 31 374
e 31 377
e 31 379
e 31 380
e 31 383
e 31 385
e 31 389
e 31 393
e 31 398
e 31 399
e 31 400
e 31 406
e 31 412
e 31 413
e 31 424
e 31 440
e 31 450
e 31 455
e 31 456
e 31 458
e 31 459
e 31 460
e 31 463
e 31 466
e 31 471
e 31 473
e 31 477
e 31 489
e 31 492
e 31 493
e 31 496
e 31 500
e 32 34
e 32 35
e 32 38
e 32 39
e 32 40
e 32 42
e 32 48
e 32 49
e 32 51
e 32 54
e 32 59
e 32 60
e 32 63
e 32 65
e 32 66
e 32 67
e 32 72
e 32 73
e 32 84
e 32 90
e 32 91
e 32 92
e 32 103
e 32 112
e 32 116
e 32 123
e 32 125
e 32 129
e 32 131
e 32 137
e 32 138
e 32 142
e 32 145
e 32 148
e 32 151
e 32 153
e 32 158
e 32 159
e 32 161
e 32 162
e 32 167
e 32 169
e 32 171
e 32 176
e 32 178
e 32 184
e 32 187
e 32 189
e 32 190
e 32 191
e 32 194
e 32 199
e 32 202
e 32 204
e 32 205
e 32 212
e 32 214
e 32 215
e 32 221
e 32 227
e 32 231
e 32 233
e 32 234
e 32 241
e 32 242
e 32 244
e 32 252
e 32 253
e 32 254
e 32 256
e 32 259
e 32 260
e 32 263
e 32 266
e 32 268
e 32 272
e 32 275
e 32 278
e 32 281
e 32 292
e 32 294
e 32 297
e 32 298
e 32 304
e 32 305
e 32 306
e 32 307
e 32 308
e 32 312
e 32 313
e 32 314
e 32 316
e 32 319
e 32 322
e 32 324
e 32 327
e 32 328
e 32 329
e 32 334
e 32 344
e 32 345
e 32 348
e 32 350
e 32 351
e 32 364
e 32 366
e 32 367
e 32 374
e 32 378
e 32 382
e 32 383
e 32 384
e 32 389
e 32 394
e 32 399
e 32 404
e 32 405
e 32 412
e 32 414
e 32 417
e 32 420
e 32 421
e 32 425
e 32 426
e 32 427
e 32 434
e 32 435
e 32 438
e 32 439
e 32 440
e 32 441
e 32 444
e 32 449
e 32 452
e 32 453
e 32 454
e 32 455
e 32 457
e 32 459
e 32 461
e 32 463
e 32 464
e 32 476
e 32 477
e 32 479
e 32 480
e 32 481
e 32 483
e 32 488
e 32 492
e 32 494
e 32 500
e 33 42
e 33 43
e 33 44
e 33 48
e 33 50
e 33 53
e 33 55
e 33 57
e 33 68
e 33 69
e 33 78
e 33 81
e 33 82
e 33 85
e 33 86
e 33 93
e 33 104
e 33 105
e 33 108
e 33 114
e 33 119
e 33 121
e 33 122
e 33 134
e 33 143
e 33 144
e 33 146
e 33 149
e 33 151
e 33 153
e 33 156
e 33 161
e 33 164
e 33 166
e 33 169
e 33 173
e 33 177
e 33 178
e 33 180
e 33 186
e 33 191
e 33 192
e 33 197
e 33 200
e 33 202
e 33 204
e 33 206
e 33 216
e 33 218
e 33 221
e 33 226
e 33 228
e 33 229
e 33 230
e 33 231
e 33 232
e 33 233
e 33 242
e 33 249
e 33 250
e 33 253
e 33 255
e 33 259
e 33 264
e 33 265
e 33 267
e 33 269
e 33 272
e 33 282
e 33 283
e 33 290
e 33 294
e 33 308
e 33 309
e 33 311
e 33 315
e 33 316
e 33 333
e 33 335
e 33 339
e 33 343
e 33 345
e 33 346
e 33 349
e 33 354
e 33 357
e 33 360
e 33 365
e 33 367
e 33 369
e 33 375
e 33 379
e 33 383
e 33 386
e 33 390
e 33 391
e 33 395
e 33 403
e 33 407
e 33 408
e 33 410
e 33 411
e 33 415
e 33 425
e 33 426
e 33 427
e 33 428
e 33 430
e 33 440
e 33 441
e 33 444
e 33 445
e 33 453
e 33 456
e 33 465
e 33 467
e 33 470
e 33 472
e 33 473
e 33 475
e 33 476
e 33 479
e 33 481
e 33 482
e 33 485
e 33 486
e 33 493
e 33 494
e 33 496
e 33 497
e 34 36
e 34 41
e 34 42
e 34 44
e 34 46
e 34 47
e 34 51
e 34 52
e 34 54
e 34 56
e 34 60
e 34 68
e 34 71
e 34 74
e 34 75
e 34 77
e 34 87
e 34 88
e 34 90
e 34 98
e 34 103
e 34 107
e 34 109
e 34 110
e 34 113
e 34 116
e 34 123
e 34 129
e 34 130
e 34 131
e 34 134
e 34 136
e 34 146
e 34 148
e 34 156
e 34 158
e 34 162
e 34 165
e 34 166
e 34 167
e 34 169
e 34 172
e 34 181
e 34 183
e 34 190
e 34 195
e 34 200
e 34 206
e 34 207
e 34 208
e 34 210
e 34 214
e 34 215
e 34 219
e 34 224
e 34 225
e 34 226
e 34 227
e 34 228
e 34 229
e 34 235
e 34 236
e 34 244
e 34 247
e 34 250
e 34 257
e 34 260
e 34 261
e 34 262
e 34 267
e 34 268
e 34 278
e 34 279
e 34 282
e 34 286
e 34 287
e 34 288
e 34 293
e 34 296
e 34 304
e 34 306
e 34 307
e 34 308
e 34 310
e 34 311
e 34 312
e 34 314
e 34 319
e 34 328
e 34 332
e 34 333
e 34 337
e 34 338
e 34 340
e 34 343
e 34 349
e 34 350
e 34 351
e 34 354
e 34 357
e 34 358
e 34 361
e 34 364
e 34 367
e 34 368
e 34 370
e 34 376
e 34 377
e 34 380
e 34 385
e 34 386
e 34 388
e 34 389
e 34 390
e 34 392
e 34 395
e 34 397
e 34 401
e 34 404
e 34 412
e 34 413
e 34 416
e 34 425
e 34 430
e 34 431
e 34 435
e 34 440
e 34 442
e 34 445
e 34 451
e 34 453
e 34 454
e 34 455
e 34 457
e 34 462
e 34 463
e 34 469
e 34 472
e 34 473
e 34 475
e 34 482
e 34 492
e 34 494
e 34 499
e 34 500
e 35 39
e 35 40
e 35 45
e 35 46
e 35 48
e 35 50
e 35 51
e 35 52
e 35 53
e 35 55
e 35 58
e 35 61
e 35 62
e 35 67
e 35 68
e 35 69
e 35 72
e 35 74
e 35 79
e 35 81
e 35 82
e 35 84
e 35 88
e 35 91
e 35 97
e 35 99
e 35 109
e 35 112
e 35 113
e 35 114
e 35 116
e 35 118
e 35 119
e 35 122
e 35 126
e 35 130
e 35 133
e 35 135
e 35 138
e 35 141
e 35 143
e 35 152
e 35 153
e 35 155
e 35 160
e 35 170
e 35 176
e 35 183
e 35 186
e 35 190
e 35 192
e 35 193
e 35 196
e 35 200
e 35 201
e 35 202
e 35 203
e 35 206
e 35 214
e 35 216
e 35 217
e 35 222
e 35 224
e 35 225
e 35 226
e 35 230
e 35 232
e 35 235
e 35 241
e 35 245
e 35 246
e 35 247
e 35 248
e 35 249
e 35 250
e 35 252
e 35 257
e 35 258
e 35 260
e 35 267
e 35 270
e 35 272
e 35 273
e 35 276
e 35 279
e 35 282
e 35 283
e 35 286
e 35 294
e 35 297
e 35 311
e 35 314
e 35 315
e 35 326
e 35 332
e 35 338
e 35 341
e 35 342
e 35 345
e 35 347
e 35 356
e 35 360
e 35 364
e 35 368
e 35 369
e 35 370
e 35 371
e 35 375
e 35 377
e 35 378
e 35 382
e 35 384
e 35 397
e 35 402
e 35 416
e 35 417
e 35 424
e 35 425
e 35 428
e 35 429
e 35 433
e 35 436
e 35 440
e 35 447
e 35 451
e 35 453
e 35 456
e 35 464
e 35 465
e 35 466
e 35 470
e 35 474
e 35 475
e 35 479
e 35 481
e 35 486
e 35 494
e 36 44
e 36 47
e 36 48
e 36 52
e 36 55
e 36 57
e 36 59
e 36 63
e 36 65
e 36 72
e 36 75
e 36 76
e 36 77
e 36 79
e 36 83
e 36 90
e 36 92
e 36 96
e 36 102
e 36 110
e 36 111
e 36 112
e 36 114
e 36 116
e 36 121
e 36 123
e 36 124
e 36 127
e 36 135
e 36 137
e 36 141
e 36 142
e 36 143
e 36 155
e 36 159
e 36 164
e 36 166
e 36 174
e 36 185
e 36 188
e 36 190
e 36 192
e 36 193
e 36 199
e 36 200
e 36 201
e 36 208
e 36 213
e 36 222
e 36 229
e 36 232
e 36 242
e 36 244
e 36 246
e 36 247
e 36 254
e 36 257
e 36 259
e 36 265
e 36 268
e 36 269
e 36 270
e 36 271
e 36 279
e 36 285
e 36 288
e 36 293
e 36 296
e 36 297
e 36 301
e 36 302
e 36 304
e 36 311
e 36 314
e 36 315
e 36 316
e 36 320
e 36 321
e 36 325
e 36 329
e 36 330
e 36 332
e 36 333
e 36 345
e 36 347
e 36 348
e 36 350
e 36 351
e 36 353
e 36 360
e 36 361
e 36 366
e 36 368
e 36 369
e 36 370
e 36 371
e 36 374
e 36 375
e 36 381
e 36 385
e 36 395
e 36 403
e 36 404
e 36 405
e 36 407
e 36 409
e 36 417
e 36 420
e 36 421
e 36 424
e 36 429
e 36 434
e 36 436
e 36 440
e 36 444
e 36 446
e 36 452
e 36 453
e 36 455
e 36 459
e 36 460
e 36 462
e 36 463
e 36 464
e 36 471
e 36 472
e 36 482
e 36 485
e 36 492
e 36 497
e 37 38
e 37 42
e 37 43
e 37 44
e 37 46
e 37 50
e 37 54
e 37 59
e 37 61
e 37 63
e 37 69
e 37 70
e 37 75
e 37 80
e 37 81
e 37 88
e 37 94
e 37 95
e 37 96
e 37 97
e 37 108
e 37 112
e 37 117
e 37 118
e 37 119
e 37 120
e 37 121
e 37 126
e 37 134
e 37 135
e 37 136
e 37 139
e 37 140
e 37 141
e 37 143
e 37 145
e 37 146
e 37 152
e 37 155
e 37 162
e 37 165
e 37 171
e 37 172
e 37 179
e 37 196
e 37 198
e 37 201
e 37 205
e 37 206
e 37 207
e 37 209
e 37 210
e 37 212
e 37 213
e 37 217
e 37 220
e 37 221
e 37 224
e 37 227
e 37 230
e 37 231
e 37 233
e 37 235
e 37 236
e 37 242
e 37 243
e 37 248
e 37 251
e 37 252
e 37 259
e 37 271
e 37 276
e 37 277
e 37 278
e 37 279
e 37 280
e 37 281
e 37 286
e 37 289
e 37 291
e 37 296
e 37 297
e 37 304
e 37 306
e 37 310
e 37 316
e 37 317
e 37 318
e 37 320
e 37 327
e 37 328
e 37 329
e 37 334
e 37 338
e 37 339
e 37 342
e 37 343
e 37 350
e 37 357
e 37 359
e 37 364
e 37 371
e 37 374
e 37 376
e 37 381
e 37 384
e 37 389
e 37 395
e 37 400
e 37 401
e 37 402
e 37 403
e 37 407
e 37 415
e 37 423
e 37 425
e 37 434
e 37 439
e 37 440
e 37 442
e 37 446
e 37 448
e 37 454
e 37 455
e 37 463
e 37 466
e 37 468
e 37 480
e 37 483
e 37 486
e 37 496
e 37 497
e 37 499
e 37 500
e 38 43
e 38 45
e 38 53
e 38 55
e 38 56
e 38 59
e 38 62
e 38 63
e 38 66
e 38 72
e 38 73
e 38 75
e 38 76
e 38 77
e 38 80
e 38 81
e 38 83
e 38 84
e 38 85
e 38 88
e 38 90
e 38 91
e 38 92
e 38 94
e 38 102
e 38 103
e 38 109
e 38 112
e 38 113
e 38 115
e 38 120
e 38 122
e 38 125
e 38 127
e 38 130
e 38 133
e 38 135
e 38 143
e 38 145
e 38 147
e 38 150
e 38 154
e 38 162
e 38 166
e 38 167
e 38 169
e 38 172
e 38 177
e 38 178
e 38 180
e 38 181
e 38 184
e 38 187
e 38 190
e 38 191
e 38 192
e 38 194
e 38 195
e 38 200
e 38 202
e 38 205
e 38 208
e 38 209
e 38 213
e 38 215
e 38 217
e 38 219
e 38 222
e 38 237
e 38 238
e 38 239
e 38 241
e 38 246
e 38 254
e 38 262
e 38 267
e 38 269
e 38 273
e 38 277
e 38 281
e 38 282
e 38 288
e 38 294
e 38 305
e 38 306
e 38 309
e 38 314
e 38 319
e 38 328
e 38 330
e 38 337
e 38 340
e 38 344
e 38 346
e 38 363
e 38 367
e 38 372
e 38 374
e 38 383
e 38 385
e 38 387
e 38 393
e 38 396
e 38 397
e 38 398
e 38 404
e 38 412
e 38 413
e 38 414
e 38 416
e 38 418
e 38 421
e 38 431
e 38 435
e 38 438
e 38 440
e 38 441
e 38 449
e 38 451
e 38 454
e 38 456
e 38 457
e 38 462
e 38 466
e 38 470
e 38 471
e 38 473
e 38 474
e 38 476
e 38 481
e 38 484
e 38 489
e 38 490
e 38 492
e 38 494
e 38 496
e 38 497
e 38 500
e 39 42
e 39 53
e 39 56
e 39 58
e 39 60
e 39 68
e 39 70
e 39 77
e 39 80
e 39 88
e 39 93
e 39 97
e 39 103
e 39 107
e 39 108
e 39 112
e 39 116
e 39 120
e 39 125
e 39 126
e 39 129
e 39 134
e 39 140
e 39 148
e 39 151
e 39 152
e 39 154
e 39 161
e 39 162
e 39 166
e 39 167
e 39 170
e 39 171
e 39 173
e 39 174
e 39 176
e 39 177
e 39 180
e 39 181
e 39 184
e 39 195
e 39 198
e 39 203
e 39 205
e 39 207
e 39 211
e 39 214
e 39 216
e 39 222
e 39 223
e 39 224
e 39 231
e 39 235
e 39 237
e 39 241
e 39 244
e 39 245
e 39 252
e 39 254
e 39 256
e 39 265
e 39 266
e 39 273
e 39 282
e 39 288
e 39 289
e 39 290
e 39 293
e 39 301
e 39 302
e 39 304
e 39 306
e 39 307
e 39 308
e 39 312
e 39 314
e 39 317
e 39 321
e 39 323
e 39 324
e 39 326
e 39 331
e 39 333
e 39 334
e 39 337
e 39 338
e 39 352
e 39 357
e 39 358
e 39 360
e 39 364
e 39 367
e 39 369
e 39 371
e 39 373
e 39 374
e 39 378
e 39 379
e 39 381
e 39 383
e 39 385
e 39 388
e 39 391
e 39 395
e 39 396
e 39 399
e 39 400
e 39 404
e 39 414
e 39 422
e 39 430
e 39 432
e 39 433
e 39 434
e 39 438
e 39 442
e 39 443
e 39 445
e 39 447
e 39 449
e 39 450
e 39 452
e 39 455
e 39 459
e 39 464
e 39 467
e 39 468
e 39 471
e 39 473
e 39 478
e 39 480
e 39 484
e 39 485
e 39 492
e 39 500
e 40 43
e 40 49
e 40 50
e 40 51
e 40 53
e 40 54
e 40 65
e 40 75
e 40 77
e 40 82
e 40 86
e 40 87
e 40 89
e 40 90
e 40 95
e 40 101
e 40 104
e 40 106
e 40 110
e 40 112
e 40 116
e 40 119
e 40 120
e 40 126
e 40 127
e 40 133
e 40 135
e 40 153
e 40 159
e 40 161
e 40 162
e 40 163
e 40 166
e 40 168
e 40 169
e 40 175
e 40 180
e 40 181
e 40 183
e 40 184
e 40 185
e 40 191
e 40 195
e 40 196
e 40 200
e 40 214
e 40 216
e 40 217
e 40 224
e 40 226
e 40 227
e 40 228
e 40 229
e 40 230
e 40 241
e 40 242
e 40 243
e 40 250
e 40 252
e 40 254
e 40 255
e 40 257
e 40 258
e 40 259
e 40 263
e 40 264
e 40 265
e 40 266
e 40 268
e 40 273
e 40 283
e 40 287
e 40 289
e 40 293
e 40 296
e 40 298
e 40 300
e 40 303
e 40 305
e 40 308
e 40 311
e 40 314
e 40 317
e 40 319
e 40 320
e 40 322
e 40 323
e 40 332
e 40 335
e 40 340
e 40 341
e 40 342
e 40 354
e 40 356
e 40 359
e 40 360
e 40 364
e 40 369
e 40 370
e 40 378
e 40 380
e 40 385
e 40 390
e 40 394
e 40 397
e 40 400
e 40 405
e 40 407
e 40 409
e 40 411
e 40 412
e 40 416
e 40 420
e 40 422
e 40 425
e 40 429
e 40 436
e 40 437
e 40 438
e 40 446
e 40 454
e 40 456
e 40 457
e 40 458
e 40 460
e 40 465
e 40 466
e 40 469
e 40 471
e 40 472
e 40 474
e 40 479
e 40 483
e 40 488
e 40 489
e 40 491
e 40 494
e 40 495
e 41 43
e 41 45
e 41 55
e 41 56
e 41 57
e 41 58
e 41 60
e 41 66
e 41 67
e 41 69
e 41 75
e 41 77
e 41 80
e 41 81
e 41 83
e 41 84
e 41 85
e 41 87
e 41 95
e 41 97
e 41 99
e 41 106
e 41 109
e 41 116
e 41 119
e 41 121
e 41 122
e 41 123
e 41 126
e 41 127
e 41 128
e 41 134
e 41 138
e 41 140
e 41 143
e 41 144
e 41 157
e 41 163
e 41 165
e 41 170
e 41 174
e 41 175
e 41 177
e 41 184
e 41 186
e 41 187
e 41 188
e 41 189
e 41 192
e 41 196
e 41 199
e 41 204
e 41 213
e 41 217
e 41 219
e 41 220
e 41 227
e 41 230
e 41 231
e 41 234
e 41 236
e 41 239
e 41 251
e 41 252
e 41 258
e 41 260
e 41 263
e 41 268
e 41 271
e 41 283
e 41 284
e 41 285
e 41 287
e 41 288
e 41 291
e 41 294
e 41 298
e 41 300
e 41 302
e 41 307
e 41 309
e 41 312
e 41 314
e 41 317
e 41 318
e 41 319
e 41 320
e 41 322
e 41 323
e 41 329
e 41 330
e 41 331
e 41 333
e 41 340
e 41 341
e 41 349
e 41 353
e 41 358
e 41 361
e 41 369
e 41 371
e 41 373
e 41 376
e 41 383
e 41 391
e 41 393
e 41 397
e 41 403
e 41 406
e 41 408
e 41 409
e 41 411
e 41 413
e 41 414
e 41 415
e 41 416
e 41 417
e 41 418
e 41 419
e 41 422
e 41 423
e 41 424
e 41 432
e 41 433
e 41 434
e 41 439
e 41 440
e 41 441
e 41 443
e 41 449
e 41 451
e 41 453
e 41 456
e 41 459
e 41 463
e 41 465
e 41 466
e 41 469
e 41 474
e 41 475
e 41 479
e 41 481
e 41 486
e 41 488
e 41 492
e 41 495
e 41 497
e 41 499
e 42 48
e 42 52
e 42 55
e 42 57
e 42 59
e 42 63
e 42 66
e 42 68
e 42 74
e 42 79
e 42 80
e 42 86
e 42 88
e 42 92
e 42 93
e 42 94
e 42 105
e 42 106
e 42 112
e 42 114
e 42 116
e 42 117
e 42 121
e 42 131
e 42 132
e 42 143
e 42 144
e 42 147
e 42 158
e 42 159
e 42 163
e 42 166
e 42 171
e 42 174
e 42 177
e 42 179
e 42 182
e 42 183
e 42 186
e 42 187
e 42 191
e 42 195
e 42 197
e 42 198
e 42 200
e 42 202
e 42 203
e 42 206
e 42 207
e 42 211
e 42 218
e 42 220
e 42 221
e 42 227
e 42 228
e 42 229
e 42 234
e 42 235
e 42 237
e 42 238
e 42 239
e 42 241
e 42 253
e 42 254
e 42 256
e 42 257
e 42 261
e 42 264
e 42 266
e 42 268
e 42 273
e 42 277
e 42 278
e 42 279
e 42 283
e 42 286
e 42 287
e 42 292
e 42 295
e 42 308
e 42 315
e 42 317
e 42 318
e 42 323
e 42 324
e 42 327
e 42 331
e 42 334
e 42 341
e 42 347
e 42 348
e 42 355
e 42 358
e 42 369
e 42 373
e 42 377
e 42 378
e 42 380
e 42 383
e 42 391
e 42 392
e 42 394
e 42 403
e 42 408
e 42 410
e 42 413
e 42 414
e 42 423
e 42 427
e 42 430
e 42 434
e 42 439
e 42 446
e 42 447
e 42 450
e 42 455
e 42 456
e 42 460
e 42 463
e 42 466
e 42 467
e 42 469
e 42 471
e 42 474
e 42 476
e 42 477
e 42 488
e 42 490
e 42 491
e 42 492
e 42 494
e 42 498
e 42 500
e 43 50
e 43 53
e 43 55
e 43 59
e 43 60
e 43 61
e 43 66
e 43 67
e 43 69
e 43 71
e 43 76
e 43 82
e 43 85
e 43 86
e 43 88
e 43 93
e 43 96
e 43 98
e 43 101
e 43 104
e 43 105
e 43 107
e 43 115
e 43 116
e 43 117
e 43 124
e 43 125
e 43 127
e 43 131
e 43 135
e 43 136
e 43 137
e 43 141
e 43 142
e 43 144
e 43 146
e 43 147
e 43 148
e 43 150
e 43 158
e 43 170
e 43 176
e 43 178
e 43 179
e 43 181
e 43 186
e 43 187
e 43 188
e 43 192
e 43 193
e 43 195
e 43 197
e 43 202
e 43 211
e 43 224
e 43 230
e 43 231
e 43 233
e 43 248
e 43 250
e 43 254
e 43 255
e 43 259
e 43 262
e 43 264
e 43 268
e 43 274
e 43 280
e 43 284
e 43 286
e 43 287
e 43 293
e 43 298
e 43 302
e 43 305
e 43 306
e 43 307
e 43 309
e 43 311
e 43 313
e 43 316
e 43 319
e 43 321
e 43 322
e 43 327
e 43 329
e 43 332
e 43 333
e 43 334
e 43 341
e 43 342
e 43 346
e 43 349
e 43 351
e 43 361
e 43 362
e 43 364
e 43 366
e 43 368
e 43 372
e 43 377
e 43 378
e 43 380
e 43 382
e 43 385
e 43 386
e 43 389
e 43 394
e 43 396
e 43 401
e 43 412
e 43 415
e 43 416
e 43 420
e 43 422
e 43 428
e 43 429
e 43 434
e 43 435
e 43 436
e 43 440
e 43 445
e 43 446
e 43 447
e 43 449
e 43 453
e 43 455
e 43 456
e 43 458
e 43 459
e 43 463
e 43 464
e 43 466
e 43 467
e 43 476
e 43 478
e 43 479
e 43 482
e 43 486
e 43 488
e 43 493
e 43 498
e 43 499
e 44 48
e 44 52
e 44 53
e 44 58
e 44 59
e 44 63
e 44 71
e 44 72
e 44 76
e 44 77
e 44 82
e 44 83
e 44 86
e 44 87
e 44 94
e 44 97
e 44 98
e 44 100
e 44 104
e 44 105
e 44 106
e 44 109
e 44 111
e 44 115
e 44 118
e 44 119
e 44 124
e 44 129
e 44 132
e 44 134
e 44 142
e 44 150
e 44 151
e 44 152
e 44 156
e 44 161
e 44 175
e 44 182
e 44 183
e 44 189
e 44 190
e 44 196
e 44 198
e 44 199
e 44 200
e 44 202
e 44 209
e 44 218
e 44 219
e 44 221
e 44 222
e 44 231
e 44 232
e 44 234
e 44 237
e 44 238
e 44 240
e 44 241
e 44 242
e 44 246
e 44 248
e 44 253
e 44 260
e 44 263
e 44 264
e 44 267
e 44 268
e 44 269
e 44 272
e 44 278
e 44 279
e 44 280
e 44 289
e 44 290
e 44 291
e 44 296
e 44 306
e 44 308
e 44 309
e 44 313
e 44 323
e 44 330
e 44 331
e 44 337
e 44 347
e 44 356
e 44 358
e 44 359
e 44 362
e 44 366
e 44 376
e 44 377
e 44 382
e 44 386
e 44 393
e 44 397
e 44 403
e 44 410
e 44 412
e 44 413
e 44 422
e 44 424
e 44 425
e 44 426
e 44 429
e 44 430
e 44 431
e 44 433
e 44 434
e 44 435
e 44 440
e 44 441
e 44 443
e 44 446
e 44 454
e 44 456
e 44 460
e 44 462
e 44 478
e 44 485
e 44 487
e 44 489
e 44 490
e 44 493
e 44 494
e 44 495
e 44 499
e 45 52
e 45 53
e 45 54
e 45 55
e 45 56
e 45 57
e 45 62
e 45 67
e 45 68
e 45 70
e 45 71
e 45 73
e 45 74
e 45 75
e 45 78
e 45 79
e 45 82
e 45 89
e 45 92
e 45 96
e 45 97
e 45 98
e 45 109
e 45 111
e 45 113
e 45 116
e 45 117
e 45 126
e 45 130
e 45 141
e 45 142
e 45 144
e 45 145
e 45 161
e 45 162
e 45 165
e 45 168
e 45 171
e 45 178
e 45 179
e 45 186
e 45 192
e 45 193
e 45 199
e 45 201
e 45 205
e 45 206
e 45 207
e 45 210
e 45 211
e 45 212
e 45 217
e 45 218
e 45 224
e 45 230
e 45 234
e 45 239
e 45 246
e 45 252
e 45 253
e 45 254
e 45 255
e 45 256
e 45 257
e 45 258
e 45 264
e 45 266
e 45 274
e 45 276
e 45 279
e 45 281
e 45 282
e 45 285
e 45 288
e 45 290
e 45 292
e 45 293
e 45 299
e 45 300
e 45 301
e 45 302
e 45 303
e 45 308
e 45 311
e 45 314
e 45 316
e 45 326
e 45 327
e 45 328
e 45 329
e 45 330
e 45 336
e 45 339
e 45 341
e 45 350
e 45 351
e 45 353
e 45 358
e 45 362
e 45 364
e 45 365
e 45 367
e 45 368
e 45 373
e 45 375
e 45 377
e 45 379
e 45 383
e 45 387
e 45 400
e 45 408
e 45 411
e 45 413
e 45 425
e 45 427
e 45 428
e 45 463
e 45 466
e 45 468
e 45 471
e 45 477
e 45 488
e 45 490
e 45 492
e 45 495
e 45 496
e 46 52
e 46 54
e 46 58
e 46 69
e 46 71
e 46 74
e 46 84
e 46 86
e 46 89
e 46 94
e 46 97
e 46 98
e 46 100
e 46 101
e 46 104
e 46 107
e 46 108
e 46 109
e 46 111
e 46 113
e 46 117
e 46 119
e 46 120
e 46 121
e 46 122
e 46 127
e 46 128
e 46 132
e 46 135
e 46 136
e 46 142
e 46 145
e 46 149
e 46 150
e 46 156
e 46 157
e 46 159
e 46 161
e 46 162
e 46 171
e 46 174
e 46 177
e 46 182
e 46 183
e 46 184
e 46 185
e 46 186
e 46 189
e 46 193
e 46 195
e 46 200
e 46 201
e 46 202
e 46 213
e 46 217
e 46 219
e 46 220
e 46 222
e 46 225
e 46 227
e 46 232
e 46 237
e 46 240
e 46 243
e 46 246
e 46 247
e 46 249
e 46 255
e 46 256
e 46 258
e 46 261
e 46 267
e 46 268
e 46 269
e 46 274
e 46 278
e 46 280
e 46 285
e 46 288
e 46 293
e 46 295
e 46 297
e 46 300
e 46 301
e 46 305
e 46 313
e 46 315
e 46 316
e 46 319
e 46 320
e 46 330
e 46 331
e 46 334
e 46 335
e 46 341
e 46 346
e 46 348
e 46 353
e 46 354
e 46 356
e 46 357
e 46 360
e 46 363
e 46 371
e 46 373
e 46 377
e 46 381
e 46 382
e 46 384
e 46 385
e 46 391
e 46 394
e 46 402
e 46 405
e 46 406
e 46 407
e 46 416
e 46 420
e 46 422
e 46 424
e 46 426
e 46 428
e 46 429
e 46 440
e 46 442
e 46 446
e 46 449
e 46 450
e 46 453
e 46 459
e 46 461
e 46 466
e 46 469
e 46 476
e 46 478
e 46 481
e 46 482
e 46 485
e 46 489
e 46 490
e 46 495
e 46 496
e 47 48
e 47 51
e 47 53
e 47 54
e 47 60
e 47 62
e 47 64
e 47 70
e 47 72
e 47 73
e 47 75
e 47 77
e 47 88
e 47 92
e 47 93
e 47 99
e 47 100
e 47 101
e 47 104
e 47 107
e 47 108
e 47 114
e 47 117
e 47 121
e 47 125
e 47 127
e 47 129
e 47 133
e 47 134
e 47 139
e 47 141
e 47 144
e 47 146
e 47 147
e 47 149
e 47 161
e 47 163
e 47 166
e 47 168
e 47 170
e 47 172
e 47 174
e 47 175
e 47 176
e 47 177
e 47 188
e 47 189
e 47 195
e 47 199
e 47 202
e 47 205
e 47 210
e 47 211
e 47 215
e 47 216
e 47 225
e 47 226
e 47 228
e 47 232
e 47 233
e 47 236
e 47 240
e 47 241
e 47 243
e 47 248
e 47 250
e 47 252
e 47 256
e 47 258
e 47 261
e 47 264
e 47 268
e 47 271
e 47 272
e 47 274
e 47 276
e 47 277
e 47 280
e 47 285
e 47 287
e 47 291
e 47 304
e 47 318
e 47 321
e 47 322
e 47 329
e 47 331
e 47 332
e 47 337
e 47 340
e 47 341
e 47 345
e 47 348
e 47 349
e 47 351
e 47 354
e 47 357
e 47 358
e 47 359
e 47 363
e 47 364
e 47 367
e 47 371
e 47 372
e 47 373
e 47 374
e 47 384
e 47 387
e 47 388
e 47 394
e 47 396
e 47 398
e 47 400
e 47 412
e 47 413
e 47 416
e 47 417
e 47 421
e 47 425
e 47 426
e 47 427
e 47 433
e 47 434
e 47 436
e 47 439
e 47 441
e 47 444
e 47 448
e 47 452
e 47 453
e 47 458
e 47 459
e 47 462
e 47 463
e 47 464
e 47 465
e 47 468
e 47 471
e 47 480
e 47 487
e 47 488
e 47 491
e 47 492
e 47 495
e 47 499
e 48 53
e 48 58
e 48 59
e 48 69
e 48 73
e 48 74
e 48 80
e 48 83
e 48 84
e 48 85
e 48 92
e 48 93
e 48 94
e 48 95
e 48 96
e 48 98
e 48 102
e 48 103
e 48 108
e 48 111
e 48 112
e 48 113
e 48 115
e 48 121
e 48 123
e 48 125
e 48 128
e 48 129
e 48 130
e 48 133
e 48 136
e 48 144
e 48 153
e 48 161
e 48 162
e 48 164
e 48 170
e 48 176
e 48 183
e 48 187
e 48 188
e 48 192
e 48 193
e 48 195
e 48 197
e 48 198
e 48 199
e 48 208
e 48 212
e 48 213
e 48 215
e 48 222
e 48 223
e 48 224
e 48 226
e 48 234
e 48 235
e 48 238
e 48 240
e 48 242
e 48 243
e 48 246
e 48 253
e 48 255
e 48 268
e 48 273
e 48 278
e 48 279
e 48 282
e 48 286
e 48 288
e 48 291
e 48 293
e 48 295
e 48 302
e 48 309
e 48 312
e 48 313
e 48 315
e 48 321
e 48 325
e 48 326
e 48 332
e 48 335
e 48 336
e 48 337
e 48 340
e 48 342
e 48 348
e 48 352
e 48 358
e 48 361
e 48 363
e 48 365
e 48 366
e 48 367
e 48 369
e 48 371
e 48 373
e 48 374
e 48 375
e 48 381
e 48 385
e 48 389
e 48 399
e 48 402
e 48 409
e 48 411
e 48 413
e 48 415
e 48 416
e 48 418
e 48 423
e 48 426
e 48 429
e 48 430
e 48 433
e 48 438
e 48 442
e 48 444
e 48 445
e 48 446
e 48 454
e 48 461
e 48 463
e 48 474
e 48 476
e 48 477
e 48 479
e 48 482
e 48 483
e 48 484
e 48 485
e 48 486
e 48 489
e 48 493
e 48 499
e 49 51
e 49 54
e 49 55
e 49 62
e 49 63
e 49 65
e 49 67
e 49 72
e 49 77
e 49 79
e 49 86
e 49 88
e 49 89
e 49 91
e 49 94
e 49 96
e 49 99
e 49 106
e 49 109
e 49 112
e 49 113
e 49 118
e 49 120
e 49 123
e 49 124
e 49 125
e 49 127
e 49 128
e 49 138
e 49 143
e 49 144
e 49 145
e 49 148
e 49 150
e 49 152
e 49 153
e 49 154
e 49 155
e 49 156
e 49 157
e 49 158
e 49 159
e 49 160
e 49 166
e 49 173
e 49 179
e 49 180
e 49 184
e 49 187
e 49 196
e 49 197
e 49 199
e 49 200
e 49 205
e 49 219
e 49 220
e 49 225
e 49 229
e 49 249
e 49 257
e 49 260
e 49 263
e 49 265
e 49 271
e 49 274
e 49 275
e 49 276
e 49 281
e 49 285
e 49 287
e 49 291
e 49 295
e 49 297
e 49 300
e 49 308
e 49 309
e 49 312
e 49 328
e 49 329
e 49 333
e 49 335
e 49 344
e 49 354
e 49 355
e 49 359
e 49 363
e 49 365
e 49 371
e 49 374
e 49 375
e 49 382
e 49 383
e 49 385
e 49 392
e 49 393
e 49 394
e 49 397
e 49 399
e 49 405
e 49 407
e 49 414
e 49 416
e 49 417
e 49 422
e 49 423
e 49 433
e 49 439
e 49 440
e 49 441
e 49 443
e 49 444
e 49 445
e 49 449
e 49 459
e 49 462
e 49 466
e 49 471
e 49 473
e 49 477
e 49 479
e 49 481
e 49 482
e 49 486
e 49 490
e 49 492
e 49 493
e 49 496
e 49 497
e 49 498
e 50 54
e 50 64
e 50 71
e 50 73
e 50 75
e 50 78
e 50 80
e 50 86
e 50 87
e 50 90
e 50 97
e 50 98
e 50 101
e 50 102
e 50 103
e 50 104
e 50 111
e 50 114
e 50 118
e 50 119
e 50 128
e 50 130
e 50 131
e 50 132
e 50 144
e 50 147
e 50 149
e 50 151
e 50 153
e 50 157
e 50 161
e 50 166
e 50 167
e 50 168
e 50 170
e 50 172
e 50 178
e 50 179
e 50 185
e 50 187
e 50 189
e 50 192
e 50 195
e 50 202
e 50 203
e 50 204
e 50 205
e 50 206
e 50 207
e 50 209
e 50 210
e 50 211
e 50 214
e 50 215
e 50 216
e 50 218
e 50 219
e 50 222
e 50 223
e 50 224
e 50 227
e 50 229
e 50 230
e 50 233
e 50 237
e 50 240
e 50 241
e 50 249
e 50 258
e 50 264
e 50 273
e 50 278
e 50 280
e 50 289
e 50 297
e 50 298
e 50 304
e 50 311
e 50 313
e 50 316
e 50 317
e 50 319
e 50 321
e 50 323
e 50 325
e 50 334
e 50 335
e 50 344
e 50 345
e 50 347
e 50 354
e 50 355
e 50 357
e 50 360
e 50 367
e 50 371
e 50 373
e 50 376
e 50 377
e 50 378
e 50 379
e 50 384
e 50 391
e 50 394
e 50 408
e 50 409
e 50 410
e 50 413
e 50 420
e 50 428
e 50 429
e 50 431
e 50 435
e 50 436
e 50 445
e 50 446
e 50 447
e 50 449
e 50 450
e 50 455
e 50 458
e 50 460
e 50 464
e 50 467
e 50 468
e 50 471
e 50 475
e 50 476
e 50 478
e 50 483
e 50 487
e 50 489
e 50 491
e 50 493
e 50 495
e 50 496
e 50 498
e 50 500
e 51 57
e 51 59
e 51 60
e 51 68
e 51 70
e 51 73
e 51 79
e 51 82
e 51 86
e 51 92
e 51 93
e 51 95
e 51 96
e 51 99
e 51 110
e 51 112
e 51 117
e 51 120
e 51 127
e 51 132
e 51 134
e 51 139
e 51 141
e 51 146
e 51 149
e 51 152
e 51 153
e 51 154
e 51 155
e 51 156
e 51 157
e 51 158
e 51 159
e 51 161
e 51 163
e 51 164
e 51 167
e 51 168
e 51 170
e 51 172
e 51 174
e 51 175
e 51 180
e 51 182
e 51 185
e 51 186
e 51 187
e 51 193
e 51 194
e 51 195
e 51 197
e 51 202
e 51 218
e 51 222
e 51 225
e 51 226
e 51 230
e 51 235
e 51 236
e 51 240
e 51 242
e 51 250
e 51 251
e 51 256
e 51 257
e 51 260
e 51 261
e 51 271
e 51 279
e 51 280
e 51 282
e 51 287
e 51 288
e 51 294
e 51 302
e 51 308
e 51 309
e 51 315
e 51 318
e 51 320
e 51 321
e 51 327
e 51 333
e 51 335
e 51 346
e 51 347
e 51 350
e 51 351
e 51 359
e 51 360
e 51 366
e 51 369
e 51 373
e 51 375
e 51 385
e 51 392
e 51 395
e 51 399
e 51 405
e 51 407
e 51 408
e 51 409
e 51 412
e 51 414
e 51 426
e 51 430
e 51 432
e 51 433
e 51 434
e 51 436
e 51 437
e 51 444
e 51 445
e 51 447
e 51 449
e 51 453
e 51 454
e 51 456
e 51 459
e 51 460
e 51 461
e 51 462
e 51 474
e 51 476
e 51 477
e 51 479
e 51 480
e 51 481
e 51 484
e 51 497
e 51 498
e 51 499
e 52 53
e 52 59
e 52 64
e 52 67
e 52 68
e 52 69
e 52 74
e 52 77
e 52 80
e 52 82
e 52 83
e 52 84
e 52 86
e 52 89
e 52 91
e 52 92
e 52 94
e 52 100
e 52 101
e 52 103
e 52 104
e 52 105
e 52 109
e 52 121
e 52 127
e 52 132
e 52 135
e 52 136
e 52 138
e 52 144
e 52 146
e 52 147
e 52 148
e 52 149
e 52 151
e 52 156
e 52 157
e 52 164
e 52 165
e 52 168
e 52 173
e 52 174
e 52 177
e 52 178
e 52 184
e 52 195
e 52 196
e 52 197
e 52 204
e 52 210
e 52 211
e 52 217
e 52 218
e 52 223
e 52 228
e 52 229
e 52 237
e 52 242
e 52 244
e 52 250
e 52 256
e 52 260
e 52 261
e 52 264
e 52 267
e 52 268
e 52 271
e 52 272
e 52 273
e 52 275
e 52 277
e 52 278
e 52 282
e 52 283
e 52 285
e 52 288
e 52 290
e 52 296
e 52 297
e 52 299
e 52 318
e 52 321
e 52 323
e 52 325
e 52 326
e 52 336
e 52 340
e 52 343
e 52 344
e 52 349
e 52 354
e 52 358
e 52 363
e 52 364
e 52 367
e 52 375
e 52 380
e 52 391
e 52 393
e 52 398
e 52 410
e 52 416
e 52 417
e 52 426
e 52 430
e 52 431
e 52 432
e 52 433
e 52 444
e 52 448
e 52 449
e 52 453
e 52 456
e 52 457
e 52 467
e 52 472
e 52 473
e 52 475
e 52 477
e 52 478
e 52 484
e 52 487
e 52 490
e 52 496
e 52 497
e 53 55
e 53 57
e 53 58
e 53 69
e 53 75
e 53 77
e 53 79
e 53 85
e 53 87
e 53 92
e 53 93
e 53 96
e 53 99
e 53 102
e 53 107
e 53 111
e 53 112
e 53 114
e 53 118
e 53 121
e 53 122
e 53 123
e 53 127
e 53 130
e 53 136
e 53 137
e 53 141
e 53 144
e 53 146
e 53 147
e 53 150
e 53 151
e 53 153
e 53 161
e 53 162
e 53 169
e 53 173
e 53 178
e 53 192
e 53 193
e 53 195
e 53 196
e 53 198
e 53 204
e 53 205
e 53 212
e 53 214
e 53 217
e 53 218
e 53 225
e 53 229
e 53 230
e 53 231
e 53 235
e 53 237
e 53 238
e 53 244
e 53 246
e 53 247
e 53 249
e 53 250
e 53 252
e 53 253
e 53 254
e 53 259
e 53 265
e 53 266
e 53 269
e 53 273
e 53 277
e 53 283
e 53 284
e 53 287
e 53 296
e 53 298
e 53 303
e 53 305
e 53 306
e 53 310
e 53 311
e 53 314
e 53 320
e 53 323
e 53 324
e 53 325
e 53 328
e 53 329
e 53 334
e 53 337
e 53 338
e 53 343
e 53 344
e 53 345
e 53 346
e 53 350
e 53 352
e 53 357
e 53 360
e 53 363
e 53 364
e 53 366
e 53 367
e 53 374
e 53 375
e 53 379
e 53 381
e 53 382
e 53 385
e 53 388
e 53 392
e 53 397
e 53 399
e 53 404
e 53 412
e 53 417
e 53 421
e 53 423
e 53 431
e 53 437
e 53 443
e 53 447
e 53 450
e 53 461
e 53 466
e 53 470
e 53 474
e 53 476
e 53 477
e 53 479
e 53 481
e 53 484
e 53 490
e 53 492
e 53 499
e 54 55
e 54 59
e 54 61
e 54 64
e 54 66
e 54 68
e 54 69
e 54 71
e 54 72
e 54 73
e 54 74
e 54 80
e 54 81
e 54 82
e 54 83
e 54 87
e 54 93
e 54 94
e 54 98
e 54 106
e 54 108
e 54 120
e 54 125
e 54 128
e 54 133
e 54 137
e 54 138
e 54 139
e 54 140
e 54 142
e 54 146
e 54 151
e 54 154
e 54 156
e 54 159
e 54 160
e 54 171
e 54 176
e 54 179
e 54 180
e 54 185
e 54 187
e 54 191
e 54 192
e 54 197
e 54 206
e 54 207
e 54 212
e 54 216
e 54 219
e 54 221
e 54 225
e 54 230
e 54 231
e 54 234
e 54 235
e 54 241
e 54 242
e 54 246
e 54 247
e 54 249
e 54 252
e 54 258
e 54 263
e 54 264
e 54 267
e 54 270
e 54 272
e 54 274
e 54 276
e 54 279
e 54 287
e 54 288
e 54 289
e 54 293
e 54 310
e 54 311
e 54 313
e 54 318
e 54 321
e 54 327
e 54 336
e 54 339
e 54 341
e 54 344
e 54 346
e 54 348
e 54 349
e 54 351
e 54 353
e 54 364
e 54 376
e 54 382
e 54 383
e 54 384
e 54 388
e 54 390
e 54 394
e 54 399
e 54 403
e 54 410
e 54 411
e 54 413
e 54 414
e 54 416
e 54 417
e 54 421
e 54 427
e 54 430
e 54 438
e 54 439
e 54 444
e 54 445
e 54 449
e 54 454
e 54 461
e 54 467
e 54 468
e 54 471
e 54 474
e 54 475
e 54 479
e 54 482
e 54 483
e 54 487
e 54 488
e 54 492
e 54 497
e 54 499
e 54 500
e 55 59
e 55 63
e 55 64
e 55 65
e 55 67
e 55 68
e 55 73
e 55 83
e 55 84
e 55 86
e 55 87
e 55 91
e 55 98
e 55 101
e 55 102
e 55 106
e 55 110
e 55 126
e 55 127
e 55 128
e 55 131
e 55 132
e 55 138
e 55 140
e 55 141
e 55 151
e 55 152
e 55 153
e 55 154
e 55 157
e 55 161
e 55 163
e 55 165
e 55 167
e 55 168
e 55 171
e 55 172
e 55 177
e 55 179
e 55 182
e 55 184
e 55 186
e 55 190
e 55 197
e 55 199
e 55 204
e 55 212
e 55 216
e 55 217
e 55 232
e 55 239
e 55 247
e 55 249
e 55 255
e 55 257
e 55 259
e 55 270
e 55 278
e 55 283
e 55 287
e 55 289
e 55 292
e 55 298
e 55 299
e 55 300
e 55 302
e 55 305
e 55 307
e 55 310
e 55 312
e 55 319
e 55 320
e 55 322
e 55 323
e 55 327
e 55 332
e 55 335
e 55 337
e 55 339
e 55 345
e 55 351
e 55 354
e 55 357
e 55 360
e 55 365
e 55 370
e 55 372
e 55 373
e 55 382
e 55 385
e 55 386
e 55 389
e 55 393
e 55 399
e 55 400
e 55 402
e 55 403
e 55 407
e 55 408
e 55 410
e 55 411
e 55 412
e 55 413
e 55 414
e 55 420
e 55 421
e 55 423
e 55 425
e 55 429
e 55 432
e 55 433
e 55 434
e 55 437
e 55 440
e 55 442
e 55 444
e 55 446
e 55 454
e 55 455
e 55 464
e 55 467
e 55 477
e 55 479
e 55 484
e 55 486
e 55 487
e 55 489
e 55 490
e 55 495
e 55 496
e 55 497
e 55 500
e 56 60
e 56 61
e 56 63
e 56 66
e 56 70
e 56 75
e 56 76
e 56 78
e 56 79
e 56 80
e 56 83
e 56 92
e 56 93
e 56 94
e 56 95
e 56 99
e 56 102
e 56 105
e 56 109
e 56 110
e 56 112
e 56 114
e 56 118
e 56 119
e 56 120
e 56 126
e 56 128
e 56 133
e 56 137
e 56 141
e 56 142
e 56 146
e 56 148
e 56 150
e 56 151
e 56 153
e 56 154
e 56 155
e 56 157
e 56 161
e 56 162
e 56 163
e 56 171
e 56 172
e 56 173
e 56 175
e 56 176
e 56 179
e 56 188
e 56 192
e 56 199
e 56 200
e 56 202
e 56 206
e 56 210
e 56 214
e 56 223
e 56 224
e 56 227
e 56 228
e 56 235
e 56 236
e 56 239
e 56 240
e 56 241
e 56 246
e 56 247
e 56 249
e 56 253
e 56 254
e 56 259
e 56 260
e 56 262
e 56 264
e 56 265
e 56 266
e 56 269
e 56 275
e 56 277
e 56 278
e 56 280
e 56 283
e 56 285
e 56 286
e 56 291
e 56 293
e 56 297
e 56 300
e 56 301
e 56 302
e 56 311
e 56 313
e 56 314
e 56 319
e 56 321
e 56 328
e 56 329
e 56 332
e 56 334
e 56 342
e 56 345
e 56 346
e 56 347
e 56 350
e 56 351
e 56 358
e 56 363
e 56 366
e 56 369
e 56 370
e 56 375
e 56 378
e 56 379
e 56 380
e 56 381
e 56 382
e 56 383
e 56 384
e 56 386
e 56 388
e 56 390
e 56 393
e 56 394
e 56 396
e 56 398
e 56 399
e 56 400
e 56 401
e 56 403
e 56 405
e 56 409
e 56 412
e 56 415
e 56 420
e 56 422
e 56 423
e 56 427
e 56 430
e 56 432
e 56 439
e 56 440
e 56 442
e 56 443
e 56 444
e 56 448
e 56 456
e 56 459
e 56 460
e 56 464
e 56 466
e 56 468
e 56 471
e 56 472
e 56 475
e 56 484
e 56 486
e 56 487
e 56 488
e 56 490
e 57 58
e 57 60
e 57 65
e 57 67
e 57 68
e 57 69
e 57 72
e 57 73
e 57 75
e 57 79
e 57 82
e 57 84
e 57 91
e 57 95
e 57 96
e 57 98
e 57 101
e 57 102
e 57 110
e 57 114
e 57 115
e 57 116
e 57 125
e 57 126
e 57 131
e 57 135
e 57 142
e 57 145
e 57 153
e 57 155
e 57 159
e 57 166
e 57 167
e 57 171
e 57 172
e 57 176
e 57 177
e 57 179
e 57 180
e 57 181
e 57 185
e 57 187
e 57 188
e 57 190
e 57 193
e 57 196
e 57 197
e 57 201
e 57 209
e 57 217
e 57 219
e 57 223
e 57 225
e 57 231
e 57 232
e 57 234
e 57 236
e 57 238
e 57 239
e 57 243
e 57 248
e 57 249
e 57 251
e 57 253
e 57 255
e 57 261
e 57 264
e 57 266
e 57 274
e 57 283
e 57 286
e 57 290
e 57 301
e 57 304
e 57 311
e 57 313
e 57 315
e 57 326
e 57 327
e 57 331
e 57 333
e 57 337
e 57 339
e 57 340
e 57 342
e 57 343
e 57 344
e 57 345
e 57 346
e 57 347
e 57 350
e 57 352
e 57 354
e 57 355
e 57 356
e 57 359
e 57 360
e 57 363
e 57 364
e 57 371
e 57 374
e 57 378
e 57 379
e 57 380
e 57 383
e 57 393
e 57 395
e 57 397
e 57 402
e 57 405
e 57 410
e 57 414
e 57 415
e 57 418
e 57 419
e 57 420
e 57 421
e 57 422
e 57 423
e 57 424
e 57 426
e 57 427
e 57 432
e 57 433
e 57 436
e 57 444
e 57 449
e 57 451
e 57 452
e 57 453
e 57 454
e 57 456
e 57 458
e 57 466
e 57 468
e 57 469
e 57 472
e 57 476
e 57 480
e 57 482
e 57 484
e 57 487
e 57 489
e 57 492
e 57 493
e 57 495
e 57 498
e 58 65
e 58 67
e 58 68
e 58 77
e 58 83
e 58 87
e 58 89
e 58 93
e 58 94
e 58 95
e 58 99
e 58 104
e 58 105
e 58 109
e 58 113
e 58 126
e 58 128
e 58 129
e 58 132
e 58 134
e 58 140
e 58 142
e 58 146
e 58 151
e 58 156
e 58 159
e 58 160
e 58 162
e 58 163
e 58 164
e 58 166
e 58 171
e 58 172
e 58 174
e 58 175
e 58 179
e 58 181
e 58 182
e 58 191
e 58 199
e 58 200
e 58 201
e 58 211
e 58 212
e 58 215
e 58 220
e 58 223
e 58 230
e 58 232
e 58 235
e 58 236
e 58 240
e 58 247
e 58 248
e 58 249
e 58 254
e 58 257
e 58 258
e 58 259
e 58 262
e 58 269
e 58 270
e 58 273
e 58 275
e 58 280
e 58 286
e 58 291
e 58 294
e 58 299
e 58 301
e 58 308
e 58 315
e 58 318
e 58 319
e 58 324
e 58 327
e 58 331
e 58 334
e 58 335
e 58 336
e 58 345
e 58 349
e 58 352
e 58 355
e 58 356
e 58 358
e 58 359
e 58 362
e 58 363
e 58 367
e 58 368
e 58 371
e 58 374
e 58 375
e 58 382
e 58 384
e 58 387
e 58 388
e 58 395
e 58 396
e 58 398
e 58 401
e 58 402
e 58 405
e 58 408
e 58 410
e 58 414
e 58 415
e 58 417
e 58 418
e 58 421
e 58 425
e 58 426
e 58 431
e 58 433
e 58 438
e 58 439
e 58 441
e 58 446
e 58 448
e 58 454
e 58 455
e 58 457
e 58 459
e 58 460
e 58 464
e 58 468
e 58 469
e 58 472
e 58 473
e 58 474
e 58 477
e 58 478
e 58 481
e 58 483
e 58 487
e 58 488
e 58 496
e 58 498
e 59 60
e 59 63
e 59 64
e 59 66
e 59 68
e 59 69
e 59 71
e 59 77
e 59 78
e 59 80
e 59 84
e 59 87
e 59 88
e 59 101
e 59 106
e 59 108
e 59 112
e 59 114
e 59 117
e 59 125
e 59 129
e 59 138
e 59 141
e 59 152
e 59 154
e 59 156
e 59 158
e 59 165
e 59 166
e 59 168
e 59 170
e 59 174
e 59 175
e 59 180
e 59 181
e 59 184
e 59 196
e 59 202
e 59 206
e 59 207
e 59 208
e 59 211
e 59 213
e 59 215
e 59 220
e 59 222
e 59 224
e 59 225
e 59 230
e 59 241
e 59 242
e 59 245
e 59 247
e 59 248
e 59 254
e 59 259
e 59 263
e 59 266
e 59 269
e 59 271
e 59 274
e 59 275
e 59 277
e 59 283
e 59 284
e 59 285
e 59 286
e 59 292
e 59 294
e 59 295
e 59 299
e 59 300
e 59 306
e 59 310
e 59 313
e 59 316
e 59 317
e 59 321
e 59 322
e 59 325
e 59 326
e 59 330
e 59 333
e 59 347
e 59 349
e 59 351
e 59 352
e 59 357
e 59 360
e 59 364
e 59 365
e 59 366
e 59 369
e 59 370
e 59 375
e 59 380
e 59 384
e 59 389
e 59 391
e 59 392
e 59 394
e 59 406
e 59 407
e 59 408
e 59 414
e 59 417
e 59 421
e 59 422
e 59 425
e 59 429
e 59 430
e 59 431
e 59 432
e 59 438
e 59 445
e 59 449
e 59 457
e 59 460
e 59 463
e 59 472
e 59 473
e 59 476
e 59 478
e 59 486
e 59 487
e 59 488
e 59 490
e 59 493
e 59 495
e 59 499
e 60 61
e 60 64
e 60 67
e 60 70
e 60 72
e 60 74
e 60 75
e 60 80
e 60 90
e 60 95
e 60 96
e 60 97
e 60 98
e 60 99
e 60 101
e 60 102
e 60 105
e 60 106
e 60 107
e 60 108
e 60 110
e 60 115
e 60 125
e 60 126
e 60 128
e 60 130
e 60 136
e 60 145
e 60 147
e 60 148
e 60 149
e 60 150
e 60 155
e 60 167
e 60 169
e 60 172
e 60 174
e 60 175
e 60 180
e 60 183
e 60 188
e 60 194
e 60 197
e 60 203
e 60 209
e 60 210
e 60 215
e 60 222
e 60 226
e 60 229
e 60 230
e 60 232
e 60 238
e 60 240
e 60 242
e 60 243
e 60 244
e 60 249
e 60 250
e 60 251
e 60 253
e 60 254
e 60 258
e 60 264
e 60 268
e 60 272
e 60 274
e 60 276
e 60 280
e 60 283
e 60 287
e 60 293
e 60 295
e 60 296
e 60 299
e 60 300
e 60 306
e 60 310
e 60 317
e 60 326
e 60 327
e 60 329
e 60 333
e 60 339
e 60 340
e 60 342
e 60 347
e 60 351
e 60 352
e 60 357
e 60 360
e 60 361
e 60 362
e 60 367
e 60 372
e 60 373
e 60 375
e 60 378
e 60 383
e 60 385
e 60 386
e 60 389
e 60 401
e 60 406
e 60 407
e 60 414
e 60 416
e 60 424
e 60 425
e 60 426
e 60 427
e 60 433
e 60 434
e 60 440
e 60 445
e 60 451
e 60 455
e 60 466
e 60 468
e 60 469
e 60 473
e 60 474
e 60 476
e 60 477
e 60 478
e 60 479
e 60 480
e 60 482
e 60 483
e 60 485
e 60 490
e 60 494
e 61 62
e 61 66
e 61 69
e 61 71
e 61 73
e 61 77
e 61 82
e 61 96
e 61 97
e 61 99
e 61 102
e 61 104
e 61 110
e 61 118
e 61 119
e 61 122
e 61 127
e 61 130
e 61 131
e 61 135
e 61 136
e 61 137
e 61 138
e 61 145
e 61 147
e 61 152
e 61 154
e 61 156
e 61 158
e 61 161
e 61 176
e 61 181
e 61 182
e 61 183
e 61 184
e 61 185
e 61 193
e 61 201
e 61 202
e 61 208
e 61 209
e 61 210
e 61 216
e 61 217
e 61 218
e 61 219
e 61 220
e 61 223
e 61 228
e 61 229
e 61 231
e 61 236
e 61 243
e 61 255
e 61 259
e 61 268
e 61 271
e 61 275
e 61 282
e 61 289
e 61 298
e 61 300
e 61 303
e 61 304
e 61 306
e 61 307
e 61 309
e 61 311
e 61 315
e 61 319
e 61 322
e 61 324
e 61 325
e 61 330
e 61 335
e 61 336
e 61 337
e 61 343
e 61 348
e 61 357
e 61 360
e 61 371
e 61 381
e 61 382
e 61 383
e 61 385
e 61 387
e 61 395
e 61 400
e 61 406
e 61 407
e 61 408
e 61 413
e 61 422
e 61 423
e 61 424
e 61 427
e 61 430
e 61 436
e 61 440
e 61 441
e 61 442
e 61 448
e 61 449
e 61 452
e 61 460
e 61 464
e 61 467
e 61 468
e 61 472
e 61 478
e 61 479
e 61 483
e 62 64
e 62 67
e 62 70
e 62 71
e 62 72
e 62 73
e 62 75
e 62 80
e 62 88
e 62 89
e 62 91
e 62 105
e 62 127
e 62 132
e 62 134
e 62 138
e 62 148
e 62 157
e 62 159
e 62 160
e 62 161
e 62 179
e 62 180
e 62 185
e 62 189
e 62 195
e 62 199
e 62 200
e 62 203
e 62 207
e 62 221
e 62 223
e 62 227
e 62 231
e 62 232
e 62 234
e 62 235
e 62 236
e 62 237
e 62 244
e 62 252
e 62 259
e 62 268
e 62 270
e 62 271
e 62 281
e 62 294
e 62 295
e 62 303
e 62 304
e 62 305
e 62 309
e 62 315
e 62 316
e 62 319
e 62 324
e 62 326
e 62 342
e 62 344
e 62 354
e 62 355
e 62 374
e 62 378
e 62 379
e 62 382
e 62 386
e 62 387
e 62 394
e 62 395
e 62 398
e 62 400
e 62 403
e 62 407
e 62 408
e 62 414
e 62 418
e 62 421
e 62 422
e 62 423
e 62 432
e 62 437
e 62 440
e 62 443
e 62 444
e 62 446
e 62 450
e 62 458
e 62 468
e 62 469
e 62 470
e 62 476
e 62 477
e 62 479
e 62 483
e 62 487
e 62 489
e 62 490
e 63 64
e 63 65
e 63 71
e 63 73
e 63 74
e 63 75
e 63 81
e 63 88
e 63 90
e 63 95
e 63 98
e 63 101
e 63 102
e 63 107
e 63 109
e 63 112
e 63 114
e 63 122
e 63 125
e 63 127
e 63 130
e 63 132
e 63 133
e 63 136
e 63 140
e 63 141
e 63 145
e 63 146
e 63 151
e 63 153
e 63 160
e 63 161
e 63 164
e 63 169
e 63 171
e 63 175
e 63 176
e 63 178
e 63 181
e 63 182
e 63 183
e 63 185
e 63 188
e 63 189
e 63 204
e 63 206
e 63 209
e 63 217
e 63 220
e 63 223
e 63 227
e 63 241
e 63 242
e 63 243
e 63 244
e 63 249
e 63 250
e 63 252
e 63 261
e 63 262
e 63 269
e 63 280
e 63 281
e 63 282
e 63 286
e 63 288
e 63 290
e 63 295
e 63 296
e 63 305
e 63 307
e 63 309
e 63 312
e 63 322
e 63 324
e 63 326
e 63 327
e 63 328
e 63 335
e 63 340
e 63 342
e 63 343
e 63 345
e 63 347
e 63 353
e 63 364
e 63 372
e 63 375
e 63 379
e 63 383
e 63 384
e 63 385
e 63 388
e 63 389
e 63 390
e 63 392
e 63 400
e 63 405
e 63 406
e 63 408
e 63 414
e 63 420
e 63 421
e 63 423
e 63 424
e 63 425
e 63 432
e 63 439
e 63 442
e 63 457
e 63 460
e 63 465
e 63 467
e 63 470
e 63 477
e 63 478
e 63 479
e 63 485
e 63 486
e 63 487
e 63 491
e 63 492
e 63 495
e 63 496
e 63 497
e 63 500
e 64 66
e 64 69
e 64 70
e 64 72
e 64 74
e 64 78
e 64 81
e 64 82
e 64 84
e 64 85
e 64 86
e 64 88
e 64 91
e 64 96
e 64 97
e 64 98
e 64 103
e 64 106
e 64 108
e 64 109
e 64 115
e 64 116
e 64 120
e 64 122
e 64 124
e 64 125
e 64 129
e 64 130
e 64 131
e 64 133
e 64 135
e 64 145
e 64 146
e 64 147
e 64 153
e 64 155
e 64 156
e 64 159
e 64 161
e 64 165
e 64 168
e 64 169
e 64 170
e 64 172
e 64 181
e 64 185
e 64 189
e 64 192
e 64 200
e 64 201
e 64 205
e 64 208
e 64 210
e 64 211
e 64 215
e 64 219
e 64 221
e 64 222
e 64 226
e 64 228
e 64 229
e 64 234
e 64 235
e 64 236
e 64 237
e 64 238
e 64 246
e 64 247
e 64 248
e 64 249
e 64 250
e 64 251
e 64 256
e 64 263
e 64 266
e 64 267
e 64 268
e 64 271
e 64 272
e 64 275
e 64 279
e 64 282
e 64 286
e 64 287
e 64 292
e 64 297
e 64 304
e 64 308
e 64 309
e 64 313
e 64 314
e 64 316
e 64 319
e 64 324
e 64 326
e 64 329
e 64 331
e 64 332
e 64 336
e 64 341
e 64 342
e 64 343
e 64 344
e 64 345
e 64 346
e 64 349
e 64 351
e 64 352
e 64 361
e 64 363
e 64 364
e 64 372
e 64 375
e 64 377
e 64 379
e 64 380
e 64 381
e 64 385
e 64 387
e 64 390
e 64 397
e 64 399
e 64 405
e 64 406
e 64 413
e 64 417
e 64 418
e 64 420
e 64 421
e 64 422
e 64 427
e 64 428
e 64 432
e 64 435
e 64 438
e 64 439
e 64 441
e 64 442
e 64 444
e 64 446
e 64 447
e 64 449
e 64 452
e 64 456
e 64 461
e 64 463
e 64 464
e 64 466
e 64 467
e 64 468
e 64 471
e 64 473
e 64 475
e 64 482
e 64 483
e 64 490
e 64 491
e 64 492
e 64 496
e 64 497
e 65 67
e 65 68
e 65 70
e 65 72
e 65 75
e 65 82
e 65 83
e 65 84
e 65 85
e 65 91
e 65 99
e 65 104
e 65 107
e 65 108
e 65 109
e 65 114
e 65 118
e 65 121
e 65 122
e 65 130
e 65 135
e 65 136
e 65 137
e 65 143
e 65 145
e 65 147
e 65 153
e 65 156
e 65 157
e 65 160
e 65 162
e 65 163
e 65 179
e 65 180
e 65 183
e 65 186
e 65 192
e 65 193
e 65 197
e 65 202
e 65 205
e 65 207
e 65 208
e 65 209
e 65 210
e 65 212
e 65 214
e 65 216
e 65 219
e 65 221
e 65 230
e 65 234
e 65 240
e 65 241
e 65 257
e 65 258
e 65 259
e 65 262
e 65 263
e 65 270
e 65 271
e 65 275
e 65 276
e 65 278
e 65 280
e 65 291
e 65 300
e 65 301
e 65 303
e 65 304
e 65 310
e 65 311
e 65 314
e 65 316
e 65 322
e 65 325
e 65 328
e 65 329
e 65 333
e 65 335
e 65 345
e 65 350
e 65 353
e 65 354
e 65 356
e 65 358
e 65 359
e 65 361
e 65 362
e 65 363
e 65 368
e 65 370
e 65 374
e 65 377
e 65 378
e 65 380
e 65 386
e 65 387
e 65 401
e 65 403
e 65 405
e 65 407
e 65 413
e 65 414
e 65 423
e 65 426
e 65 427
e 65 432
e 65 435
e 65 438
e 65 442
e 65 449
e 65 453
e 65 456
e 65 457
e 65 458
e 65 462
e 65 469
e 65 470
e 65 472
e 65 474
e 65 476
e 65 477
e 65 484
e 65 488
e 65 496
e 65 498
e 65 499
e 65 500
e 66 69
e 66 70
e 66 71
e 66 74
e 66 75
e 66 77
e 66 78
e 66 79
e 66 81
e 66 83
e 66 91
e 66 93
e 66 98
e 66 99
e 66 100
e 66 105
e 66 113
e 66 117
e 66 119
e 66 120
e 66 122
e 66 130
e 66 131
e 66 133
e 66 139
e 66 140
e 66 141
e 66 143
e 66 145
e 66 147
e 66 154
e 66 158
e 66 159
e 66 161
e 66 163
e 66 164
e 66 167
e 66 174
e 66 176
e 66 177
e 66 182
e 66 183
e 66 188
e 66 198
e 66 199
e 66 200
e 66 203
e 66 205
e 66 208
e 66 210
e 66 212
e 66 217
e 66 218
e 66 221
e 66 223
e 66 224
e 66 228
e 66 230
e 66 235
e 66 238
e 66 243
e 66 245
e 66 247
e 66 250
e 66 253
e 66 254
e 66 258
e 66 269
e 66 270
e 66 274
e 66 280
e 66 287
e 66 288
e 66 290
e 66 291
e 66 295
e 66 300
e 66 301
e 66 302
e 66 304
e 66 311
e 66 313
e 66 316
e 66 318
e 66 321
e 66 323
e 66 326
e 66 329
e 66 332
e 66 351
e 66 354
e 66 356
e 66 357
e 66 361
e 66 363
e 66 365
e 66 366
e 66 367
e 66 368
e 66 369
e 66 370
e 66 373
e 66 376
e 66 377
e 66 387
e 66 398
e 66 399
e 66 401
e 66 407
e 66 408
e 66 409
e 66 411
e 66 419
e 66 421
e 66 422
e 66 424
e 66 426
e 66 427
e 66 429
e 66 434
e 66 436
e 66 437
e 66 438
e 66 439
e 66 442
e 66 446
e 66 449
e 66 450
e 66 454
e 66 459
e 66 463
e 66 469
e 66 471
e 66 477
e 66 480
e 66 486
e 66 490
e 66 492
e 66 493
e 66 495
e 66 500
e 67 70
e 67 75
e 67 76
e 67 77
e 67 79
e 67 84
e 67 88
e 67 90
e 67 102
e 67 103
e 67 104
e 67 105
e 67 109
e 67 110
e 67 113
e 67 121
e 67 125
e 67 126
e 67 127
e 67 130
e 67 134
e 67 140
e 67 141
e 67 142
e 67 143
e 67 145
e 67 146
e 67 147
e 67 153
e 67 154
e 67 155
e 67 163
e 67 165
e 67 167
e 67 171
e 67 174
e 67 178
e 67 180
e 67 191
e 67 192
e 67 193
e 67 195
e 67 200
e 67 201
e 67 203
e 67 205
e 67 210
e 67 216
e 67 218
e 67 220
e 67 224
e 67 230
e 67 233
e 67 234
e 67 235
e 67 236
e 67 237
e 67 238
e 67 240
e 67 245
e 67 246
e 67 255
e 67 260
e 67 268
e 67 269
e 67 277
e 67 283
e 67 286
e 67 287
e 67 292
e 67 295
e 67 306
e 67 308
e 67 314
e 67 315
e 67 323
e 67 324
e 67 332
e 67 333
e 67 335
e 67 338
e 67 341
e 67 347
e 67 350
e 67 351
e 67 352
e 67 354
e 67 355
e 67 361
e 67 363
e 67 369
e 67 373
e 67 375
e 67 381
e 67 385
e 67 387
e 67 390
e 67 395
e 67 397
e 67 398
e 67 400
e 67 405
e 67 406
e 67 407
e 67 408
e 67 413
e 67 416
e 67 418
e 67 424
e 67 428
e 67 429
e 67 430
e 67 431
e 67 432
e 67 435
e 67 436
e 67 450
e 67 453
e 67 458
e 67 459
e 67 463
e 67 465
e 67 472
e 67 473
e 67 481
e 67 482
e 67 483
e 67 484
e 67 485
e 67 488
e 67 489
e 67 490
e 67 491
e 67 492
e 67 493
e 67 495
e 68 72
e 68 73
e 68 82
e 68 83
e 68 84
e 68 85
e 68 87
e 68 88
e 68 90
e 68 92
e 68 93
e 68 94
e 68 95
e 68 96
e 68 98
e 68 99
e 68 108
e 68 112
e 68 113
e 68 116
e 68 123
e 68 126
e 68 127
e 68 129
e 68 132
e 68 137
e 68 148
e 68 151
e 68 153
e 68 154
e 68 157
e 68 165
e 68 167
e 68 171
e 68 173
e 68 175
e 68 180
e 68 184
e 68 185
e 68 186
e 68 190
e 68 191
e 68 197
e 68 201
e 68 202
e 68 205
e 68 206
e 68 208
e 68 209
e 68 213
e 68 219
e 68 222
e 68 230
e 68 232
e 68 236
e 68 240
e 68 246
e 68 249
e 68 253
e 68 255
e 68 258
e 68 259
e 68 260
e 68 264
e 68 265
e 68 268
e 68 269
e 68 271
e 68 278
e 68 279
e 68 286
e 68 289
e 68 292
e 68 299
e 68 300
e 68 301
e 68 304
e 68 306
e 68 315
e 68 321
e 68 323
e 68 324
e 68 331
e 68 335
e 68 342
e 68 350
e 68 353
e 68 360
e 68 361
e 68 363
e 68 364
e 68 365
e 68 373
e 68 374
e 68 376
e 68 378
e 68 385
e 68 387
e 68 388
e 68 391
e 68 392
e 68 393
e 68 394
e 68 397
e 68 403
e 68 405
e 68 407
e 68 409
e 68 412
e 68 413
e 68 414
e 68 421
e 68 422
e 68 428
e 68 435
e 68 444
e 68 447
e 68 450
e 68 454
e 68 455
e 68 456
e 68 459
e 68 463
e 68 464
e 68 468
e 68 470
e 68 471
e 68 479
e 68 481
e 68 482
e 68 485
e 68 489
e 68 493
e 68 495
e 69 70
e 69 75
e 69 76
e 69 77
e 69 78
e 69 80
e 69 89
e 69 91
e 69 92
e 69 96
e 69 101
e 69 102
e 69 105
e 69 107
e 69 108
e 69 110
e 69 113
e 69 114
e 69 115
e 69 119
e 69 120
e 69 121
e 69 123
e 69 127
e 69 130
e 69 132
e 69 133
e 69 136
e 69 138
e 69 145
e 69 146
e 69 148
e 69 149
e 69 153
e 69 155
e 69 159
e 69 162
e 69 166
e 69 169
e 69 171
e 69 176
e 69 177
e 69 180
e 69 191
e 69 203
e 69 204
e 69 210
e 69 211
e 69 220
e 69 221
e 69 222
e 69 226
e 69 228
e 69 229
e 69 232
e 69 237
e 69 244
e 69 246
e 69 249
e 69 251
e 69 253
e 69 258
e 69 260
e 69 264
e 69 268
e 69 270
e 69 271
e 69 275
e 69 278
e 69 279
e 69 281
e 69 284
e 69 290
e 69 295
e 69 296
e 69 299
e 69 300
e 69 306
e 69 307
e 69 308
e 69 315
e 69 317
e 69 318
e 69 319
e 69 323
e 69 326
e 69 328
e 69 331
e 69 334
e 69 335
e 69 336
e 69 342
e 69 344
e 69 352
e 69 358
e 69 362
e 69 363
e 69 364
e 69 366
e 69 380
e 69 382
e 69 383
e 69 387
e 69 390
e 69 393
e 69 396
e 69 397
e 69 398
e 69 399
e 69 402
e 69 403
e 69 405
e 69 408
e 69 409
e 69 410
e 69 412
e 69 414
e 69 416
e 69 418
e 69 419
e 69 423
e 69 428
e 69 434
e 69 435
e 69 437
e 69 439
e 69 441
e 69 447
e 69 449
e 69 450
e 69 454
e 69 456
e 69 457
e 69 461
e 69 464
e 69 467
e 69 468
e 69 470
e 69 473
e 69 474
e 69 479
e 69 481
e 69 482
e 69 483
e 69 484
e 69 487
e 69 492
e 69 493
e 69 494
e 69 495
e 70 71
e 70 75
e 70 76
e 70 79
e 70 84
e 70 93
e 70 95
e 70 99
e 70 104
e 70 121
e 70 122
e 70 123
e 70 124
e 70 125
e 70 136
e 70 137
e 70 147
e 70 148
e 70 149
e 70 150
e 70 152
e 70 153
e 70 155
e 70 156
e 70 163
e 70 168
e 70 169
e 70 171
e 70 174
e 70 183
e 70 185
e 70 189
e 70 194
e 70 195
e 70 209
e 70 213
e 70 214
e 70 215
e 70 218
e 70 219
e 70 220
e 70 222
e 70 223
e 70 225
e 70 228
e 70 233
e 70 234
e 70 238
e 70 242
e 70 246
e 70 250
e 70 251
e 70 259
e 70 260
e 70 271
e 70 272
e 70 275
e 70 277
e 70 280
e 70 283
e 70 286
e 70 288
e 70 292
e 70 295
e 70 296
e 70 305
e 70 308
e 70 317
e 70 319
e 70 321
e 70 327
e 70 328
e 70 329
e 70 331
e 70 350
e 70 352
e 70 354
e 70 356
e 70 357
e 70 360
e 70 367
e 70 368
e 70 372
e 70 378
e 70 383
e 70 386
e 70 387
e 70 391
e 70 393
e 70 394
e 70 395
e 70 398
e 70 405
e 70 407
e 70 417
e 70 422
e 70 424
e 70 427
e 70 428
e 70 429
e 70 430
e 70 431
e 70 441
e 70 443
e 70 447
e 70 451
e 70 453
e 70 454
e 70 456
e 70 463
e 70 466
e 70 469
e 70 472
e 70 481
e 70 484
e 70 486
e 70 487
e 70 491
e 70 492
e 70 494
e 70 495
e 70 498
e 70 500
e 71 74
e 71 77
e 71 78
e 71 80
e 71 83
e 71 84
e 71 88
e 71 92
e 71 95
e 71 96
e 71 102
e 71 110
e 71 112
e 71 115
e 71 118
e 71 121
e 71 122
e 71 125
e 71 133
e 71 136
e 71 137
e 71 143
e 71 146
e 71 149
e 71 151
e 71 155
e 71 156
e 71 159
e 71 162
e 71 165
e 71 172
e 71 174
e 71 176
e 71 177
e 71 180
e 71 189
e 71 190
e 71 191
e 71 193
e 71 194
e 71 198
e 71 203
e 71 206
e 71 208
e 71 210
e 71 211
e 71 213
e 71 215
e 71 217
e 71 218
e 71 221
e 71 224
e 71 226
e 71 231
e 71 234
e 71 240
e 71 242
e 71 246
e 71 248
e 71 256
e 71 257
e 71 259
e 71 267
e 71 272
e 71 275
e 71 279
e 71 281
e 71 286
e 71 287
e 71 290
e 71 293
e 71 298
e 71 300
e 71 304
e 71 308
e 71 311
e 71 312
e 71 316
e 71 318
e 71 320
e 71 326
e 71 328
e 71 330
e 71 331
e 71 334
e 71 341
e 71 347
e 71 348
e 71 349
e 71 350
e 71 357
e 71 359
e 71 360
e 71 364
e 71 365
e 71 368
e 71 371
e 71 377
e 71 383
e 71 384
e 71 387
e 71 389
e 71 393
e 71 398
e 71 402
e 71 403
e 71 409
e 71 413
e 71 419
e 71 420
e 71 428
e 71 430
e 71 433
e 71 434
e 71 437
e 71 439
e 71 449
e 71 458
e 71 465
e 71 469
e 71 472
e 71 475
e 71 482
e 71 485
e 71 486
e 71 493
e 71 496
e 71 497
e 71 498
e 72 75
e 72 84
e 72 85
e 72 87
e 72 88
e 72 106
e 72 107
e 72 111
e 72 112
e 72 113
e 72 116
e 72 125
e 72 127
e 72 132
e 72 133
e 72 135
e 72 137
e 72 142
e 72 144
e 72 146
e 72 155
e 72 159
e 72 160
e 72 162
e 72 163
e 72 166
e 72 171
e 72 175
e 72 177
e 72 184
e 72 189
e 72 191
e 72 197
e 72 199
e 72 201
e 72 202
e 72 205
e 72 208
e 72 209
e 72 210
e 72 213
e 72 220
e 72 226
e 72 230
e 72 234
e 72 236
e 72 237
e 72 240
e 72 244
e 72 245
e 72 253
e 72 263
e 72 268
e 72 269
e 72 270
e 72 272
e 72 280
e 72 281
e 72 289
e 72 305
e 72 314
e 72 316
e 72 322
e 72 336
e 72 337
e 72 338
e 72 345
e 72 347
e 72 352
e 72 363
e 72 365
e 72 366
e 72 368
e 72 372
e 72 373
e 72 381
e 72 386
e 72 393
e 72 396
e 72 397
e 72 403
e 72 407
e 72 412
e 72 417
e 72 419
e 72 424
e 72 426
e 72 427
e 72 429
e 72 432
e 72 435
e 72 437
e 72 438
e 72 440
e 72 441
e 72 447
e 72 448
e 72 455
e 72 462
e 72 467
e 72 468
e 72 476
e 72 484
e 72 485
e 72 487
e 72 490
e 72 492
e 72 499
e 73 83
e 73 84
e 73 85
e 73 86
e 73 87
e 73 91
e 73 92
e 73 93
e 73 96
e 73 99
e 73 101
e 73 106
e 73 107
e 73 116
e 73 123
e 73 129
e 73 131
e 73 134
e 73 139
e 73 140
e 73 142
e 73 144
e 73 145
e 73 152
e 73 153
e 73 161
e 73 163
e 73 165
e 73 167
e 73 171
e 73 173
e 73 176
e 73 177
e 73 179
e 73 180
e 73 181
e 73 182
e 73 187
e 73 189
e 73 190
e 73 191
e 73 198
e 73 199
e 73 205
e 73 206
e 73 209
e 73 210
e 73 213
e 73 215
e 73 218
e 73 225
e 73 226
e 73 235
e 73 242
e 73 244
e 73 249
e 73 251
e 73 254
e 73 255
e 73 256
e 73 258
e 73 261
e 73 263
e 73 266
e 73 271
e 73 275
e 73 276
e 73 277
e 73 279
e 73 280
e 73 286
e 73 288
e 73 290
e 73 291
e 73 293
e 73 298
e 73 305
e 73 306
e 73 307
e 73 310
e 73 313
e 73 316
e 73 320
e 73 322
e 73 325
e 73 330
e 73 335
e 73 349
e 73 354
e 73 357
e 73 358
e 73 368
e 73 369
e 73 370
e 73 371
e 73 377
e 73 380
e 73 387
e 73 390
e 73 391
e 73 395
e 73 400
e 73 410
e 73 411
e 73 415
e 73 417
e 73 420
e 73 421
e 73 426
e 73 430
e 73 431
e 73 438
e 73 439
e 73 445
e 73 448
e 73 450
e 73 452
e 73 453
e 73 457
e 73 459
e 73 460
e 73 468
e 73 470
e 73 472
e 73 474
e 73 488
e 73 490
e 73 492
e 73 493
e 74 80
e 74 81
e 74 84
e 74 85
e 74 91
e 74 94
e 74 101
e 74 102
e 74 111
e 74 112
e 74 114
e 74 116
e 74 121
e 74 123
e 74 124
e 74 126
e 74 130
e 74 133
e 74 138
e 74 146
e 74 147
e 74 148
e 74 152
e 74 154
e 74 158
e 74 159
e 74 163
e 74 167
e 74 168
e 74 169
e 74 170
e 74 171
e 74 175
e 74 177
e 74 181
e 74 183
e 74 184
e 74 185
e 74 189
e 74 196
e 74 199
e 74 212
e 74 214
e 74 221
e 74 233
e 74 234
e 74 238
e 74 247
e 74 248
e 74 250
e 74 253
e 74 257
e 74 270
e 74 273
e 74 275
e 74 280
e 74 285
e 74 289
e 74 291
e 74 296
e 74 297
e 74 300
e 74 302
e 74 310
e 74 311
e 74 312
e 74 313
e 74 314
e 74 322
e 74 329
e 74 342
e 74 345
e 74 356
e 74 361
e 74 364
e 74 366
e 74 367
e 74 370
e 74 372
e 74 374
e 74 376
e 74 379
e 74 380
e 74 386
e 74 389
e 74 391
e 74 396
e 74 399
e 74 402
e 74 403
e 74 406
e 74 408
e 74 410
e 74 416
e 74 418
e 74 421
e 74 426
e 74 431
e 74 432
e 74 437
e 74 456
e 74 457
e 74 462
e 74 464
e 74 467
e 74 468
e 74 471
e 74 473
e 74 474
e 74 476
e 74 481
e 74 483
e 74 491
e 74 492
e 74 496
e 75 76
e 75 78
e 75 83
e 75 86
e 75 96
e 75 102
e 75 104
e 75 112
e 75 114
e 75 121
e 75 126
e 75 129
e 75 130
e 75 131
e 75 132
e 75 139
e 75 140
e 75 150
e 75 153
e 75 156
e 75 158
e 75 166
e 75 169
e 75 173
e 75 175
e 75 177
e 75 186
e 75 188
e 75 194
e 75 196
e 75 201
e 75 202
e 75 203
e 75 208
e 75 209
e 75 210
e 75 212
e 75 213
e 75 216
e 75 218
e 75 220
e 75 221
e 75 224
e 75 225
e 75 226
e 75 231
e 75 233
e 75 240
e 75 245
e 75 252
e 75 255
e 75 256
e 75 259
e 75 262
e 75 264
e 75 266
e 75 271
e 75 273
e 75 274
e 75 282
e 75 283
e 75 287
e 75 290
e 75 293
e 75 301
e 75 305
e 75 307
e 75 308
e 75 309
e 75 310
e 75 312
e 75 313
e 75 314
e 75 320
e 75 330
e 75 332
e 75 333
e 75 338
e 75 339
e 75 344
e 75 346
e 75 354
e 75 355
e 75 356
e 75 362
e 75 363
e 75 364
e 75 369
e 75 370
e 75 376
e 75 378
e 75 381
e 75 386
e 75 387
e 75 392
e 75 397
e 75 400
e 75 407
e 75 408
e 75 413
e 75 417
e 75 421
e 75 425
e 75 426
e 75 427
e 75 433
e 75 434
e 75 437
e 75 438
e 75 439
e 75 440
e 75 444
e 75 447
e 75 450
e 75 455
e 75 456
e 75 462
e 75 467
e 75 468
e 75 469
e 75 472
e 75 474
e 75 481
e 75 482
e 75 484
e 75 487
e 75 488
e 75 493
e 75 495
e 76 86
e 76 89
e 76 90
e 76 98
e 76 100
e 76 108
e 76 109
e 76 112
e 76 113
e 76 115
e 76 118
e 76 119
e 76 122
e 76 125
e 76 133
e 76 134
e 76 137
e 76 139
e 76 142
e 76 143
e 76 149
e 76 151
e 76 152
e 76 154
e 76 155
e 76 156
e 76 160
e 76 161
e 76 168
e 76 169
e 76 175
e 76 179
e 76 183
e 76 184
e 76 188
e 76 190
e 76 191
e 76 193
e 76 195
e 76 197
e 76 198
e 76 204
e 76 206
e 76 208
e 76 216
e 76 217
e 76 219
e 76 220
e 76 224
e 76 225
e 76 228
e 76 230
e 76 232
e 76 233
e 76 239
e 76 241
e 76 242
e 76 250
e 76 253
e 76 257
e 76 258
e 76 260
e 76 262
e 76 263
e 76 271
e 76 272
e 76 274
e 76 275
e 76 277
e 76 279
e 76 281
e 76 283
e 76 286
e 76 287
e 76 288
e 76 295
e 76 297
e 76 301
e 76 302
e 76 305
e 76 306
e 76 310
e 76 316
e 76 321
e 76 323
e 76 324
e 76 325
e 76 329
e 76 330
e 76 331
e 76 336
e 76 340
e 76 342
e 76 344
e 76 349
e 76 351
e 76 352
e 76 353
e 76 360
e 76 363
e 76 366
e 76 369
e 76 371
e 76 372
e 76 375
e 76 378
e 76 386
e 76 387
e 76 389
e 76 390
e 76 392
e 76 396
e 76 401
e 76 402
e 76 406
e 76 407
e 76 408
e 76 409
e 76 410
e 76 411
e 76 412
e 76 415
e 76 417
e 76 421
e 76 422
e 76 433
e 76 434
e 76 438
e 76 441
e 76 442
e 76 444
e 76 446
e 76 449
e 76 454
e 76 456
e 76 461
e 76 464
e 76 469
e 76 470
e 76 471
e 76 473
e 76 480
e 76 483
e 76 486
e 76 489
e 76 492
e 76 495
e 76 496
e 77 89
e 77 90
e 77 93
e 77 95
e 77 97
e 77 98
e 77 104
e 77 106
e 77 111
e 77 120
e 77 124
e 77 127
e 77 129
e 77 130
e 77 141
e 77 145
e 77 152
e 77 153
e 77 155
e 77 157
e 77 158
e 77 161
e 77 162
e 77 164
e 77 165
e 77 167
e 77 169
e 77 171
e 77 172
e 77 173
e 77 180
e 77 183
e 77 184
e 77 186
e 77 189
e 77 192
e 77 193
e 77 194
e 77 211
e 77 212
e 77 217
e 77 218
e 77 219
e 77 220
e 77 222
e 77 223
e 77 226
e 77 229
e 77 231
e 77 238
e 77 245
e 77 252
e 77 253
e 77 256
e 77 264
e 77 265
e 77 267
e 77 268
e 77 272
e 77 273
e 77 277
e 77 287
e 77 288
e 77 291
e 77 296
e 77 300
e 77 307
e 77 310
e 77 311
e 77 317
e 77 318
e 77 325
e 77 326
e 77 330
e 77 334
e 77 337
e 77 341
e 77 345
e 77 351
e 77 354
e 77 359
e 77 361
e 77 366
e 77 373
e 77 374
e 77 379
e 77 380
e 77 382
e 77 383
e 77 386
e 77 388
e 77 390
e 77 391
e 77 393
e 77 394
e 77 396
e 77 398
e 77 401
e 77 402
e 77 404
e 77 407
e 77 410
e 77 414
e 77 424
e 77 430
e 77 435
e 77 439
e 77 441
e 77 449
e 77 459
e 77 461
e 77 463
e 77 465
e 77 468
e 77 471
e 77 475
e 77 476
e 77 477
e 77 481
e 77 497
e 78 84
e 78 85
e 78 86
e 78 89
e 78 96
e 78 100
e 78 103
e 78 105
e 78 119
e 78 120
e 78 122
e 78 126
e 78 131
e 78 134
e 78 137
e 78 144
e 78 154
e 78 159
e 78 163
e 78 165
e 78 168
e 78 170
e 78 171
e 78 172
e 78 173
e 78 175
e 78 177
e 78 181
e 78 183
e 78 185
e 78 191
e 78 192
e 78 196
e 78 198
e 78 203
e 78 207
e 78 211
e 78 213
e 78 223
e 78 225
e 78 227
e 78 228
e 78 233
e 78 236
e 78 246
e 78 248
e 78 257
e 78 261
e 78 264
e 78 265
e 78 269
e 78 270
e 78 274
e 78 276
e 78 277
e 78 280
e 78 282
e 78 286
e 78 294
e 78 295
e 78 296
e 78 297
e 78 298
e 78 299
e 78 300
e 78 301
e 78 307
e 78 308
e 78 309
e 78 312
e 78 313
e 78 320
e 78 322
e 78 324
e 78 334
e 78 335
e 78 338
e 78 339
e 78 341
e 78 342
e 78 346
e 78 348
e 78 350
e 78 358
e 78 359
e 78 363
e 78 368
e 78 371
e 78 372
e 78 375
e 78 376
e 78 377
e 78 384
e 78 385
e 78 386
e 78 387
e 78 389
e 78 390
e 78 392
e 78 396
e 78 402
e 78 407
e 78 410
e 78 411
e 78 412
e 78 413
e 78 422
e 78 425
e 78 429
e 78 433
e 78 436
e 78 438
e 78 440
e 78 441
e 78 443
e 78 454
e 78 460
e 78 465
e 78 469
e 78 471
e 78 475
e 78 479
e 78 481
e 78 486
e 78 487
e 78 492
e 78 494
e 79 83
e 79 84
e 79 85
e 79 88
e 79 89
e 79 90
e 79 93
e 79 94
e 79 96
e 79 100
e 79 101
e 79 107
e 79 108
e 79 109
e 79 122
e 79 124
e 79 125
e 79 126
e 79 129
e 79 135
e 79 139
e 79 149
e 79 155
e 79 162
e 79 163
e 79 164
e 79 165
e 79 169
e 79 174
e 79 175
e 79 179
e 79 185
e 79 194
e 79 195
e 79 196
e 79 199
e 79 213
e 79 217
e 79 220
e 79 222
e 79 223
e 79 226
e 79 231
e 79 234
e 79 235
e 79 238
e 79 239
e 79 240
e 79 248
e 79 249
e 79 265
e 79 266
e 79 267
e 79 270
e 79 274
e 79 279
e 79 281
e 79 285
e 79 286
e 79 287
e 79 288
e 79 291
e 79 292
e 79 293
e 79 294
e 79 295
e 79 314
e 79 316
e 79 317
e 79 320
e 79 321
e 79 324
e 79 325
e 79 328
e 79 330
e 79 332
e 79 335
e 79 338
e 79 345
e 79 346
e 79 349
e 79 350
e 79 353
e 79 356
e 79 358
e 79 367
e 79 370
e 79 375
e 79 379
e 79 380
e 79 388
e 79 390
e 79 391
e 79 392
e 79 393
e 79 396
e 79 400
e 79 401
e 79 402
e 79 405
e 79 408
e 79 412
e 79 414
e 79 424
e 79 425
e 79 428
e 79 437
e 79 438
e 79 445
e 79 446
e 79 447
e 79 449
e 79 456
e 79 460
e 79 462
e 79 465
e 79 471
e 79 475
e 79 477
e 79 478
e 79 482
e 79 484
e 79 486
e 79 490
e 79 492
e 79 496
e 79 497
e 80 81
e 80 82
e 80 83
e 80 91
e 80 93
e 80 95
e 80 96
e 80 103
e 80 104
e 80 107
e 80 111
e 80 112
e 80 113
e 80 115
e 80 123
e 80 127
e 80 133
e 80 140
e 80 153
e 80 155
e 80 158
e 80 163
e 80 171
e 80 177
e 80 180
e 80 183
e 80 188
e 80 189
e 80 194
e 80 196
e 80 202
e 80 204
e 80 206
e 80 208
e 80 209
e 80 211
e 80 212
e 80 215
e 80 219
e 80 220
e 80 226
e 80 228
e 80 229
e 80 230
e 80 236
e 80 238
e 80 240
e 80 241
e 80 245
e 80 246
e 80 251
e 80 257
e 80 258
e 80 261
e 80 266
e 80 268
e 80 272
e 80 275
e 80 276
e 80 277
e 80 278
e 80 279
e 80 280
e 80 282
e 80 283
e 80 286
e 80 290
e 80 295
e 80 299
e 80 301
e 80 302
e 80 312
e 80 319
e 80 320
e 80 325
e 80 332
e 80 335
e 80 336
e 80 337
e 80 340
e 80 342
e 80 343
e 80 346
e 80 347
e 80 348
e 80 353
e 80 356
e 80 360
e 80 361
e 80 366
e 80 370
e 80 373
e 80 389
e 80 391
e 80 392
e 80 395
e 80 396
e 80 407
e 80 410
e 80 414
e 80 416
e 80 418
e 80 419
e 80 421
e 80 429
e 80 430
e 80 434
e 80 435
e 80 437
e 80 445
e 80 448
e 80 449
e 80 462
e 80 466
e 80 468
e 80 470
e 80 474
e 80 475
e 80 476
e 80 486
e 80 491
e 80 495
e 80 497
e 81 82
e 81 95
e 81 100
e 81 102
e 81 103
e 81 106
e 81 107
e 81 110
e 81 115
e 81 116
e 81 118
e 81 120
e 81 122
e 81 125
e 81 127
e 81 128
e 81 130
e 81 138
e 81 139
e 81 141
e 81 148
e 81 153
e 81 157
e 81 158
e 81 159
e 81 163
e 81 167
e 81 171
e 81 172
e 81 175
e 81 177
e 81 181
e 81 187
e 81 189
e 81 190
e 81 193
e 81 195
e 81 196
e 81 197
e 81 200
e 81 201
e 81 204
e 81 208
e 81 210
e 81 212
e 81 213
e 81 214
e 81 215
e 81 217
e 81 221
e 81 237
e 81 238
e 81 239
e 81 243
e 81 244
e 81 251
e 81 252
e 81 254
e 81 255
e 81 256
e 81 258
e 81 259
e 81 263
e 81 264
e 81 267
e 81 274
e 81 279
e 81 288
e 81 296
e 81 298
e 81 299
e 81 300
e 81 301
e 81 302
e 81 303
e 81 304
e 81 306
e 81 312
e 81 317
e 81 322
e 81 323
e 81 325
e 81 330
e 81 331
e 81 340
e 81 342
e 81 344
e 81 347
e 81 360
e 81 361
e 81 371
e 81 373
e 81 382
e 81 387
e 81 390
e 81 391
e 81 393
e 81 395
e 81 397
e 81 399
e 81 408
e 81 412
e 81 414
e 81 416
e 81 417
e 81 418
e 81 424
e 81 425
e 81 428
e 81 429
e 81 433
e 81 434
e 81 436
e 81 438
e 81 440
e 81 441
e 81 445
e 81 446
e 81 448
e 81 452
e 81 454
e 81 459
e 81 460
e 81 462
e 81 465
e 81 469
e 81 472
e 81 473
e 81 483
e 81 486
e 81 489
e 81 491
e 81 492
e 81 498
e 82 83
e 82 84
e 82 87
e 82 88
e 82 90
e 82 97
e 82 100
e 82 101
e 82 103
e 82 104
e 82 105
e 82 107
e 82 109
e 82 110
e 82 115
e 82 116
e 82 117
e 82 120
e 82 121
e 82 122
e 82 126
e 82 132
e 82 143
e 82 147
e 82 148
e 82 154
e 82 160
e 82 161
e 82 162
e 82 163
e 82 169
e 82 170
e 82 172
e 82 182
e 82 183
e 82 184
e 82 188
e 82 191
e 82 195
e 82 196
e 82 200
e 82 202
e 82 204
e 82 211
e 82 215
e 82 218
e 82 219
e 82 221
e 82 222
e 82 228
e 82 230
e 82 234
e 82 236
e 82 237
e 82 239
e 82 242
e 82 250
e 82 253
e 82 258
e 82 263
e 82 266
e 82 273
e 82 274
e 82 277
e 82 280
e 82 283
e 82 285
e 82 296
e 82 301
e 82 305
e 82 306
e 82 307
e 82 311
e 82 314
e 82 315
e 82 320
e 82 322
e 82 323
e 82 328
e 82 333
e 82 337
e 82 341
e 82 344
e 82 345
e 82 355
e 82 360
e 82 361
e 82 365
e 82 373
e 82 376
e 82 379
e 82 385
e 82 389
e 82 396
e 82 398
e 82 405
e 82 413
e 82 414
e 82 420
e 82 421
e 82 424
e 82 425
e 82 426
e 82 427
e 82 431
e 82 439
e 82 444
e 82 446
e 82 450
e 82 452
e 82 454
e 82 457
e 82 461
e 82 464
e 82 466
e 82 467
e 82 472
e 82 474
e 82 475
e 82 476
e 82 482
e 82 483
e 82 484
e 82 491
e 82 495
e 82 496
e 82 499
e 83 86
e 83 88
e 83 90
e 83 92
e 83 93
e 83 99
e 83 102
e 83 105
e 83 108
e 83 111
e 83 112
e 83 113
e 83 121
e 83 124
e 83 125
e 83 126
e 83 130
e 83 132
e 83 135
e 83 136
e 83 137
e 83 139
e 83 142
e 83 144
e 83 145
e 83 146
e 83 148
e 83 154
e 83 155
e 83 159
e 83 162
e 83 168
e 83 169
e 83 179
e 83 181
e 83 191
e 83 193
e 83 194
e 83 197
e 83 199
e 83 211
e 83 213
e 83 216
e 83 217
e 83 219
e 83 225
e 83 226
e 83 227
e 83 229
e 83 231
e 83 242
e 83 244
e 83 245
e 83 249
e 83 250
e 83 259
e 83 260
e 83 261
e 83 267
e 83 268
e 83 269
e 83 272
e 83 273
e 83 276
e 83 279
e 83 281
e 83 285
e 83 286
e 83 287
e 83 288
e 83 289
e 83 292
e 83 299
e 83 303
e 83 304
e 83 309
e 83 313
e 83 314
e 83 316
e 83 318
e 83 319
e 83 322
e 83 323
e 83 324
e 83 326
e 83 327
e 83 330
e 83 339
e 83 344
e 83 348
e 83 350
e 83 351
e 83 353
e 83 355
e 83 356
e 83 359
e 83 361
e 83 364
e 83 368
e 83 373
e 83 374
e 83 377
e 83 379
e 83 386
e 83 403
e 83 404
e 83 407
e 83 414
e 83 420
e 83 430
e 83 433
e 83 434
e 83 437
e 83 440
e 83 442
e 83 444
e 83 450
e 83 451
e 83 452
e 83 453
e 83 459
e 83 460
e 83 466
e 83 467
e 83 469
e 83 485
e 83 488
e 83 489
e 83 492
e 83 495
e 83 498
e 84 86
e 84 87
e 84 88
e 84 91
e 84 100
e 84 101
e 84 104
e 84 109
e 84 111
e 84 112
e 84 117
e 84 121
e 84 123
e 84 127
e 84 128
e 84 132
e 84 133
e 84 134
e 84 139
e 84 140
e 84 145
e 84 148
e 84 154
e 84 155
e 84 162
e 84 164
e 84 166
e 84 175
e 84 177
e 84 180
e 84 181
e 84 182
e 84 184
e 84 187
e 84 193
e 84 194
e 84 196
e 84 197
e 84 202
e 84 210
e 84 212
e 84 214
e 84 216
e 84 222
e 84 223
e 84 225
e 84 227
e 84 230
e 84 231
e 84 232
e 84 244
e 84 249
e 84 251
e 84 253
e 84 254
e 84 256
e 84 260
e 84 263
e 84 264
e 84 267
e 84 271
e 84 272
e 84 279
e 84 280
e 84 281
e 84 284
e 84 286
e 84 287
e 84 288
e 84 292
e 84 294
e 84 296
e 84 297
e 84 307
e 84 308
e 84 312
e 84 314
e 84 321
e 84 322
e 84 323
e 84 324
e 84 326
e 84 327
e 84 328
e 84 329
e 84 330
e 84 333
e 84 337
e 84 342
e 84 349
e 84 350
e 84 352
e 84 353
e 84 355
e 84 356
e 84 361
e 84 363
e 84 365
e 84 367
e 84 369
e 84 370
e 84 374
e 84 375
e 84 376
e 84 381
e 84 388
e 84 392
e 84 393
e 84 395
e 84 398
e 84 400
e 84 401
e 84 402
e 84 403
e 84 410
e 84 411
e 84 414
e 84 415
e 84 416
e 84 428
e 84 436
e 84 446
e 84 450
e 84 452
e 84 456
e 84 457
e 84 458
e 84 463
e 84 464
e 84 466
e 84 467
e 84 475
e 84 478
e 84 481
e 84 486
e 84 487
e 84 490
e 85 86
e 85 87
e 85 93
e 85 94
e 85 118
e 85 128
e 85 131
e 85 139
e 85 148
e 85 153
e 85 160
e 85 161
e 85 164
e 85 173
e 85 175
e 85 182
e 85 183
e 85 185
e 85 189
e 85 194
e 85 197
e 85 201
e 85 203
e 85 206
e 85 207
e 85 213
e 85 215
e 85 217
e 85 228
e 85 230
e 85 240
e 85 246
e 85 248
e 85 249
e 85 253
e 85 259
e 85 260
e 85 264
e 85 265
e 85 270
e 85 275
e 85 279
e 85 282
e 85 289
e 85 296
e 85 297
e 85 301
e 85 302
e 85 305
e 85 306
e 85 307
e 85 311
e 85 313
e 85 315
e 85 317
e 85 324
e 85 326
e 85 327
e 85 329
e 85 334
e 85 346
e 85 348
e 85 350
e 85 351
e 85 360
e 85 361
e 85 368
e 85 372
e 85 382
e 85 383
e 85 385
e 85 386
e 85 387
e 85 388
e 85 393
e 85 396
e 85 399
e 85 408
e 85 411
e 85 414
e 85 418
e 85 421
e 85 422
e 85 423
e 85 427
e 85 432
e 85 434
e 85 438
e 85 440
e 85 442
e 85 443
e 85 448
e 85 450
e 85 453
e 85 458
e 85 466
e 85 470
e 85 483
e 85 485
e 85 488
e 85 491
e 85 498
e 85 499
e 85 500
e 86 87
e 86 90
e 86 95
e 86 97
e 86 98
e 86 101
e 86 105
e 86 108
e 86 118
e 86 127
e 86 129
e 86 133
e 86 135
e 86 136
e 86 139
e 86 140
e 86 143
e 86 144
e 86 150
e 86 154
e 86 155
e 86 159
e 86 163
e 86 169
e 86 171
e 86 181
e 86 184
e 86 186
e 86 188
e 86 194
e 86 201
e 86 209
e 86 210
e 86 211
e 86 212
e 86 220
e 86 222
e 86 223
e 86 225
e 86 226
e 86 230
e 86 232
e 86 233
e 86 236
e 86 239
e 86 249
e 86 252
e 86 254
e 86 255
e 86 258
e 86 262
e 86 263
e 86 267
e 86 272
e 86 282
e 86 283
e 86 285
e 86 288
e 86 289
e 86 295
e 86 301
e 86 307
e 86 309
e 86 313
e 86 314
e 86 316
e 86 319
e 86 321
e 86 323
e 86 328
e 86 336
e 86 338
e 86 340
e 86 344
e 86 349
e 86 360
e 86 362
e 86 363
e 86 364
e 86 365
e 86 366
e 86 370
e 86 371
e 86 372
e 86 373
e 86 379
e 86 389
e 86 398
e 86 404
e 86 405
e 86 406
e 86 409
e 86 411
e 86 413
e 86 417
e 86 428
e 86 435
e 86 438
e 86 440
e 86 442
e 86 443
e 86 444
e 86 445
e 86 458
e 86 464
e 86 469
e 86 471
e 86 477
e 86 481
e 86 486
e 86 498
e 86 499
e 87 91
e 87 92
e 87 93
e 87 97
e 87 99
e 87 102
e 87 116
e 87 121
e 87 123
e 87 129
e 87 133
e 87 138
e 87 141
e 87 142
e 87 145
e 87 152
e 87 153
e 87 155
e 87 156
e 87 157
e 87 159
e 87 161
e 87 168
e 87 170
e 87 175
e 87 177
e 87 178
e 87 179
e 87 180
e 87 181
e 87 184
e 87 186
e 87 190
e 87 191
e 87 196
e 87 197
e 87 210
e 87 213
e 87 214
e 87 216
e 87 218
e 87 221
e 87 225
e 87 237
e 87 245
e 87 255
e 87 269
e 87 270
e 87 273
e 87 275
e 87 276
e 87 278
e 87 289
e 87 290
e 87 291
e 87 297
e 87 300
e 87 305
e 87 306
e 87 310
e 87 320
e 87 321
e 87 331
e 87 335
e 87 337
e 87 341
e 87 342
e 87 344
e 87 345
e 87 347
e 87 348
e 87 349
e 87 351
e 87 353
e 87 357
e 87 360
e 87 362
e 87 365
e 87 366
e 87 368
e 87 372
e 87 373
e 87 379
e 87 380
e 87 381
e 87 383
e 87 386
e 87 389
e 87 391
e 87 393
e 87 396
e 87 397
e 87 399
e 87 404
e 87 407
e 87 408
e 87 409
e 87 411
e 87 414
e 87 415
e 87 420
e 87 425
e 87 429
e 87 435
e 87 438
e 87 444
e 87 451
e 87 453
e 87 454
e 87 456
e 87 458
e 87 459
e 87 460
e 87 461
e 87 471
e 87 481
e 87 483
e 87 486
e 87 490
e 87 492
e 88 89
e 88 91
e 88 93
e 88 94
e 88 97
e 88 98
e 88 99
e 88 101
e 88 104
e 88 106
e 88 117
e 88 122
e 88 123
e 88 125
e 88 126
e 88 128
e 88 136
e 88 137
e 88 140
e 88 144
e 88 150
e 88 151
e 88 156
e 88 159
e 88 164
e 88 173
e 88 179
e 88 190
e 88 198
e 88 200
e 88 205
e 88 206
e 88 218
e 88 221
e 88 222
e 88 225
e 88 226
e 88 230
e 88 234
e 88 238
e 88 244
e 88 254
e 88 257
e 88 258
e 88 260
e 88 264
e 88 265
e 88 267
e 88 268
e 88 271
e 88 272
e 88 276
e 88 277
e 88 278
e 88 285
e 88 286
e 88 287
e 88 290
e 88 291
e 88 294
e 88 298
e 88 307
e 88 310
e 88 317
e 88 321
e 88 322
e 88 323
e 88 324
e 88 326
e 88 336
e 88 347
e 88 348
e 88 350
e 88 352
e 88 359
e 88 360
e 88 363
e 88 365
e 88 366
e 88 372
e 88 379
e 88 384
e 88 385
e 88 386
e 88 388
e 88 392
e 88 395
e 88 398
e 88 403
e 88 405
e 88 408
e 88 410
e 88 421
e 88 424
e 88 428
e 88 432
e 88 434
e 88 435
e 88 443
e 88 445
e 88 446
e 88 450
e 88 451
e 88 455
e 88 459
e 88 463
e 88 465
e 88 466
e 88 468
e 88 476
e 88 477
e 88 479
e 88 482
e 88 485
e 88 486
e 88 488
e 88 494
e 88 496
e 88 499
e 89 95
e 89 99
e 89 101
e 89 106
e 89 112
e 89 113
e 89 115
e 89 116
e 89 122
e 89 123
e 89 124
e 89 126
e 89 130
e 89 133
e 89 134
e 89 135
e 89 136
e 89 138
e 89 140
e 89 144
e 89 145
e 89 146
e 89 158
e 89 159
e 89 161
e 89 163
e 89 166
e 89 168
e 89 171
e 89 174
e 89 175
e 89 177
e 89 178
e 89 181
e 89 185
e 89 186
e 89 190
e 89 195
e 89 203
e 89 209
e 89 210
e 89 211
e 89 214
e 89 216
e 89 220
e 89 224
e 89 225
e 89 229
e 89 231
e 89 232
e 89 233
e 89 234
e 89 239
e 89 249
e 89 253
e 89 257
e 89 265
e 89 266
e 89 269
e 89 271
e 89 272
e 89 280
e 89 281
e 89 283
e 89 288
e 89 293
e 89 295
e 89 297
e 89 302
e 89 303
e 89 305
e 89 306
e 89 309
e 89 314
e 89 315
e 89 316
e 89 320
e 89 323
e 89 325
e 89 326
e 89 335
e 89 338
e 89 339
e 89 341
e 89 347
e 89 351
e 89 353
e 89 358
e 89 359
e 89 360
e 89 361
e 89 362
e 89 364
e 89 366
e 89 369
e 89 372
e 89 377
e 89 378
e 89 385
e 89 387
e 89 389
e 89 398
e 89 404
e 89 405
e 89 408
e 89 410
e 89 411
e 89 413
e 89 414
e 89 420
e 89 422
e 89 425
e 89 430
e 89 432
e 89 435
e 89 436
e 89 437
e 89 438
e 89 442
e 89 443
e 89 446
e 89 450
e 89 457
e 89 459
e 89 460
e 89 462
e 89 463
e 89 470
e 89 472
e 89 476
e 89 479
e 89 482
e 89 483
e 89 484
e 89 486
e 89 489
e 89 491
e 89 500
e 90 93
e 90 95
e 90 97
e 90 100
e 90 102
e 90 105
e 90 106
e 90 118
e 90 119
e 90 121
e 90 123
e 90 125
e 90 131
e 90 133
e 90 134
e 90 144
e 90 145
e 90 148
e 90 149
e 90 158
e 90 162
e 90 172
e 90 173
e 90 176
e 90 179
e 90 180
e 90 182
e 90 184
e 90 187
e 90 189
e 90 191
e 90 193
e 90 197
e 90 198
e 90 199
e 90 205
e 90 208
e 90 217
e 90 248
e 90 253
e 90 255
e 90 256
e 90 261
e 90 267
e 90 269
e 90 272
e 90 274
e 90 279
e 90 281
e 90 285
e 90 286
e 90 298
e 90 299
e 90 309
e 90 310
e 90 313
e 90 314
e 90 316
e 90 319
e 90 326
e 90 329
e 90 332
e 90 336
e 90 341
e 90 344
e 90 345
e 90 347
e 90 349
e 90 350
e 90 352
e 90 355
e 90 359
e 90 364
e 90 365
e 90 366
e 90 368
e 90 369
e 90 377
e 90 389
e 90 390
e 90 391
e 90 394
e 90 411
e 90 412
e 90 421
e 90 424
e 90 427
e 90 429
e 90 435
e 90 436
e 90 439
e 90 440
e 90 441
e 90 443
e 90 445
e 90 446
e 90 447
e 90 457
e 90 458
e 90 459
e 90 461
e 90 470
e 90 471
e 90 472
e 90 476
e 90 477
e 90 478
e 90 481
e 90 487
e 90 490
e 90 492
e 90 494
e 90 497
e 90 499
e 91 92
e 91 93
e 91 94
e 91 96
e 91 100
e 91 104
e 91 112
e 91 115
e 91 117
e 91 126
e 91 127
e 91 135
e 91 139
e 91 143
e 91 144
e 91 146
e 91 153
e 91 155
e 91 157
e 91 158
e 91 162
e 91 167
e 91 170
e 91 171
e 91 179
e 91 180
e 91 184
e 91 187
e 91 191
e 91 205
e 91 215
e 91 216
e 91 218
e 91 221
e 91 227
e 91 229
e 91 238
e 91 240
e 91 242
e 91 244
e 91 245
e 91 248
e 91 250
e 91 252
e 91 264
e 91 267
e 91 272
e 91 274
e 91 276
e 91 281
e 91 287
e 91 291
e 91 294
e 91 299
e 91 301
e 91 304
e 91 305
e 91 310
e 91 311
e 91 316
e 91 321
e 91 324
e 91 330
e 91 333
e 91 334
e 91 345
e 91 347
e 91 350
e 91 351
e 91 356
e 91 357
e 91 361
e 91 362
e 91 365
e 91 371
e 91 379
e 91 380
e 91 381
e 91 383
e 91 390
e 91 392
e 91 395
e 91 396
e 91 402
e 91 404
e 91 406
e 91 407
e 91 413
e 91 416
e 91 419
e 91 420
e 91 421
e 91 422
e 91 426
e 91 427
e 91 430
e 91 435
e 91 436
e 91 437
e 91 440
e 91 449
e 91 450
e 91 451
e 91 454
e 91 459
e 91 466
e 91 475
e 91 478
e 91 479
e 91 480
e 91 485
e 91 486
e 91 488
e 91 490
e 91 492
e 91 497
e 91 499
e 92 93
e 92 97
e 92 98
e 92 102
e 92 103
e 92 106
e 92 111
e 92 112
e 92 113
e 92 115
e 92 118
e 92 120
e 92 126
e 92 129
e 92 132
e 92 135
e 92 138
e 92 142
e 92 147
e 92 149
e 92 150
e 92 163
e 92 164
e 92 176
e 92 184
e 92 188
e 92 199
e 92 200
e 92 206
e 92 209
e 92 213
e 92 216
e 92 220
e 92 223
e 92 224
e 92 228
e 92 237
e 92 239
e 92 240
e 92 253
e 92 260
e 92 265
e 92 266
e 92 268
e 92 277
e 92 280
e 92 289
e 92 303
e 92 307
e 92 308
e 92 311
e 92 320
e 92 321
e 92 328
e 92 331
e 92 333
e 92 335
e 92 336
e 92 340
e 92 341
e 92 344
e 92 345
e 92 347
e 92 350
e 92 352
e 92 353
e 92 354
e 92 355
e 92 361
e 92 366
e 92 367
e 92 371
e 92 372
e 92 376
e 92 378
e 92 380
e 92 385
e 92 387
e 92 390
e 92 392
e 92 399
e 92 403
e 92 404
e 92 406
e 92 408
e 92 412
e 92 414
e 92 420
e 92 423
e 92 425
e 92 439
e 92 441
e 92 445
e 92 446
e 92 450
e 92 451
e 92 460
e 92 462
e 92 468
e 92 473
e 92 474
e 92 476
e 92 479
e 92 483
e 92 485
e 92 486
e 92 490
e 92 496
e 93 94
e 93 96
e 93 100
e 93 105
e 93 109
e 93 118
e 93 122
e 93 125
e 93 126
e 93 127
e 93 137
e 93 138
e 93 144
e 93 152
e 93 158
e 93 168
e 93 170
e 93 173
e 93 175
e 93 185
e 93 198
e 93 205
e 93 207
e 93 208
e 93 213
e 93 214
e 93 218
e 93 220
e 93 221
e 93 226
e 93 229
e 93 235
e 93 238
e 93 245
e 93 246
e 93 250
e 93 251
e 93 253
e 93 255
e 93 256
e 93 258
e 93 261
e 93 263
e 93 266
e 93 267
e 93 268
e 93 274
e 93 295
e 93 296
e 93 300
e 93 301
e 93 302
e 93 304
e 93 306
e 93 307
e 93 308
e 93 315
e 93 316
e 93 319
e 93 324
e 93 332
e 93 333
e 93 335
e 93 342
e 93 344
e 93 347
e 93 351
e 93 353
e 93 354
e 93 357
e 93 360
e 93 362
e 93 365
e 93 368
e 93 372
e 93 373
e 93 374
e 93 375
e 93 382
e 93 385
e 93 386
e 93 389
e 93 390
e 93 391
e 93 394
e 93 399
e 93 400
e 93 406
e 93 410
e 93 412
e 93 417
e 93 419
e 93 423
e 93 425
e 93 427
e 93 428
e 93 430
e 93 433
e 93 434
e 93 435
e 93 438
e 93 445
e 93 448
e 93 455
e 93 460
e 93 463
e 93 464
e 93 474
e 93 476
e 93 477
e 93 482
e 93 485
e 93 488
e 93 489
e 93 491
e 93 495
e 93 498
e 94 96
e 94 101
e 94 103
e 94 104
e 94 106
e 94 107
e 94 109
e 94 113
e 94 114
e 94 115
e 94 122
e 94 127
e 94 132
e 94 137
e 94 138
e 94 139
e 94 143
e 94 144
e 94 148
e 94 154
e 94 155
e 94 156
e 94 157
e 94 166
e 94 168
e 94 170
e 94 181
e 94 184
e 94 185
e 94 190
e 94 191
e 94 193
e 94 199
e 94 200
e 94 208
e 94 213
e 94 217
e 94 224
e 94 229
e 94 230
e 94 231
e 94 232
e 94 234
e 94 235
e 94 238
e 94 240
e 94 241
e 94 242
e 94 244
e 94 252
e 94 255
e 94 257
e 94 258
e 94 266
e 94 267
e 94 271
e 94 272
e 94 282
e 94 284
e 94 286
e 94 290
e 94 291
e 94 292
e 94 295
e 94 297
e 94 302
e 94 303
e 94 310
e 94 311
e 94 315
e 94 322
e 94 323
e 94 328
e 94 331
e 94 332
e 94 335
e 94 337
e 94 340
e 94 347
e 94 352
e 94 353
e 94 354
e 94 355
e 94 356
e 94 360
e 94 362
e 94 367
e 94 369
e 94 372
e 94 377
e 94 380
e 94 383
e 94 387
e 94 388
e 94 392
e 94 398
e 94 401
e 94 402
e 94 409
e 94 416
e 94 419
e 94 420
e 94 428
e 94 430
e 94 439
e 94 440
e 94 442
e 94 444
e 94 445
e 94 446
e 94 452
e 94 454
e 94 455
e 94 456
e 94 464
e 94 470
e 94 477
e 94 488
e 94 490
e 94 492
e 94 495
e 94 498
e 95 97
e 95 104
e 95 106
e 95 113
e 95 115
e 95 118
e 95 123
e 95 127
e 95 131
e 95 133
e 95 135
e 95 137
e 95 138
e 95 139
e 95 141
e 95 146
e 95 152
e 95 161
e 95 163
e 95 166
e 95 167
e 95 170
e 95 174
e 95 180
e 95 183
e 95 189
e 95 190
e 95 192
e 95 194
e 95 195
e 95 196
e 95 197
e 95 198
e 95 199
e 95 205
e 95 213
e 95 219
e 95 221
e 95 224
e 95 232
e 95 236
e 95 238
e 95 239
e 95 240
e 95 243
e 95 245
e 95 248
e 95 249
e 95 252
e 95 255
e 95 259
e 95 262
e 95 264
e 95 269
e 95 270
e 95 271
e 95 273
e 95 275
e 95 280
e 95 281
e 95 286
e 95 291
e 95 293
e 95 297
e 95 301
e 95 305
e 95 307
e 95 309
e 95 311
e 95 312
e 95 313
e 95 315
e 95 317
e 95 331
e 95 332
e 95 336
e 95 348
e 95 355
e 95 357
e 95 364
e 95 371
e 95 377
e 95 379
e 95 381
e 95 386
e 95 390
e 95 392
e 95 393
e 95 396
e 95 398
e 95 399
e 95 402
e 95 403
e 95 404
e 95 408
e 95 409
e 95 412
e 95 417
e 95 419
e 95 420
e 95 424
e 95 427
e 95 428
e 95 443
e 95 444
e 95 446
e 95 452
e 95 457
e 95 460
e 95 461
e 95 462
e 95 464
e 95 465
e 95 466
e 95 469
e 95 470
e 95 471
e 95 473
e 95 474
e 95 476
e 95 480
e 95 484
e 95 485
e 95 489
e 95 491
e 95 493
e 95 494
e 95 495
e 96 97
e 96 103
e 96 106
e 96 112
e 96 116
e 96 121
e 96 123
e 96 135
e 96 137
e 96 145
e 96 147
e 96 148
e 96 154
e 96 158
e 96 161
e 96 163
e 96 164
e 96 167
e 96 170
e 96 171
e 96 173
e 96 174
e 96 178
e 96 182
e 96 186
e 96 187
e 96 190
e 96 191
e 96 196
e 96 201
e 96 207
e 96 208
e 96 209
e 96 213
e 96 214
e 96 218
e 96 222
e 96 225
e 96 227
e 96 229
e 96 248
e 96 250
e 96 251
e 96 259
e 96 266
e 96 272
e 96 277
e 96 280
e 96 288
e 96 291
e 96 292
e 96 295
e 96 300
e 96 301
e 96 306
e 96 308
e 96 310
e 96 312
e 96 313
e 96 318
e 96 319
e 96 320
e 96 322
e 96 324
e 96 337
e 96 339
e 96 348
e 96 351
e 96 353
e 96 357
e 96 359
e 96 362
e 96 369
e 96 373
e 96 375
e 96 380
e 96 390
e 96 391
e 96 394
e 96 395
e 96 397
e 96 400
e 96 415
e 96 417
e 96 418
e 96 419
e 96 420
e 96 427
e 96 428
e 96 432
e 96 434
e 96 435
e 96 442
e 96 443
e 96 446
e 96 447
e 96 449
e 96 452
e 96 453
e 96 454
e 96 455
e 96 457
e 96 461
e 96 464
e 96 473
e 96 478
e 96 481
e 96 483
e 96 487
e 96 490
e 96 495
e 96 496
e 96 497
e 96 500
e 97 98
e 97 99
e 97 103
e 97 106
e 97 109
e 97 121
e 97 124
e 97 127
e 97 128
e 97 129
e 97 130
e 97 133
e 97 134
e 97 136
e 97 140
e 97 147
e 97 150
e 97 151
e 97 155
e 97 156
e 97 160
e 97 162
e 97 164
e 97 166
e 97 179
e 97 186
e 97 187
e 97 195
e 97 199
e 97 203
e 97 210
e 97 213
e 97 215
e 97 219
e 97 220
e 97 223
e 97 224
e 97 229
e 97 232
e 97 233
e 97 234
e 97 240
e 97 246
e 97 256
e 97 263
e 97 266
e 97 269
e 97 272
e 97 274
e 97 278
e 97 279
e 97 282
e 97 284
e 97 287
e 97 293
e 97 297
e 97 299
e 97 301
e 97 303
e 97 305
e 97 312
e 97 313
e 97 315
e 97 320
e 97 329
e 97 330
e 97 333
e 97 336
e 97 339
e 97 342
e 97 344
e 97 345
e 97 350
e 97 354
e 97 358
e 97 362
e 97 369
e 97 372
e 97 378
e 97 379
e 97 380
e 97 384
e 97 388
e 97 392
e 97 393
e 97 395
e 97 396
e 97 398
e 97 399
e 97 401
e 97 402
e 97 407
e 97 408
e 97 409
e 97 411
e 97 414
e 97 415
e 97 418
e 97 419
e 97 421
e 97 422
e 97 424
e 97 429
e 97 435
e 97 441
e 97 443
e 97 444
e 97 453
e 97 456
e 97 457
e 97 461
e 97 464
e 97 465
e 97 467
e 97 468
e 97 470
e 97 474
e 97 481
e 97 483
e 97 484
e 97 486
e 97 489
e 97 491
e 97 492
e 97 498
e 98 100
e 98 102
e 98 106
e 98 107
e 98 109
e 98 118
e 98 121
e 98 125
e 98 127
e 98 131
e 98 132
e 98 133
e 98 134
e 98 138
e 98 139
e 98 142
e 98 143
e 98 146
e 98 151
e 98 152
e 98 156
e 98 157
e 98 160
e 98 161
e 98 163
e 98 164
e 98 167
e 98 168
e 98 169
e 98 174
e 98 180
e 98 185
e 98 187
e 98 189
e 98 190
e 98 196
e 98 198
e 98 201
e 98 203
e 98 204
e 98 205
e 98 216
e 98 217
e 98 222
e 98 224
e 98 226
e 98 227
e 98 234
e 98 235
e 98 239
e 98 240
e 98 242
e 98 243
e 98 244
e 98 245
e 98 246
e 98 256
e 98 260
e 98 263
e 98 266
e 98 284
e 98 285
e 98 287
e 98 289
e 98 291
e 98 293
e 98 294
e 98 300
e 98 301
e 98 302
e 98 304
e 98 306
e 98 307
e 98 308
e 98 310
e 98 311
e 98 320
e 98 323
e 98 324
e 98 326
e 98 327
e 98 329
e 98 331
e 98 335
e 98 343
e 98 345
e 98 347
e 98 348
e 98 350
e 98 352
e 98 361
e 98 362
e 98 367
e 98 368
e 98 369
e 98 371
e 98 375
e 98 381
e 98 390
e 98 392
e 98 393
e 98 395
e 98 400
e 98 403
e 98 404
e 98 405
e 98 407
e 98 411
e 98 413
e 98 416
e 98 420
e 98 422
e 98 425
e 98 427
e 98 428
e 98 430
e 98 433
e 98 435
e 98 440
e 98 441
e 98 442
e 98 445
e 98 448
e 98 450
e 98 453
e 98 456
e 98 459
e 98 463
e 98 464
e 98 471
e 98 473
e 98 476
e 98 479
e 98 480
e 98 482
e 98 483
e 98 489
e 98 490
e 98 491
e 98 498
e 99 120
e 99 131
e 99 132
e 99 135
e 99 139
e 99 141
e 99 143
e 99 148
e 99 150
e 99 151
e 99 153
e 99 160
e 99 161
e 99 165
e 99 167
e 99 169
e 99 173
e 99 178
e 99 188
e 99 189
e 99 190
e 99 204
e 99 209
e 99 210
e 99 216
e 99 217
e 99 219
e 99 220
e 99 222
e 99 223
e 99 227
e 99 230
e 99 235
e 99 236
e 99 237
e 99 241
e 99 244
e 99 248
e 99 252
e 99 257
e 99 259
e 99 264
e 99 272
e 99 275
e 99 278
e 99 279
e 99 281
e 99 284
e 99 286
e 99 289
e 99 295
e 99 300
e 99 301
e 99 304
e 99 307
e 99 308
e 99 315
e 99 316
e 99 320
e 99 321
e 99 322
e 99 323
e 99 324
e 99 337
e 99 344
e 99 345
e 99 348
e 99 350
e 99 351
e 99 356
e 99 357
e 99 360
e 99 368
e 99 376
e 99 379
e 99 385
e 99 388
e 99 390
e 99 393
e 99 395
e 99 396
e 99 398
e 99 401
e 99 402
e 99 406
e 99 410
e 99 413
e 99 414
e 99 415
e 99 418
e 99 420
e 99 421
e 99 426
e 99 427
e 99 436
e 99 448
e 99 449
e 99 452
e 99 465
e 99 469
e 99 477
e 99 478
e 99 480
e 99 486
e 99 491
e 99 493
e 100 101
e 100 104
e 100 108
e 100 113
e 100 117
e 100 118
e 100 119
e 100 124
e 100 136
e 100 142
e 100 143
e 100 145
e 100 146
e 100 147
e 100 149
e 100 153
e 100 155
e 100 158
e 100 159
e 100 160
e 100 162
e 100 164
e 100 166
e 100 168
e 100 172
e 100 176
e 100 178
e 100 180
e 100 185
e 100 188
e 100 205
e 100 206
e 100 209
e 100 213
e 100 214
e 100 217
e 100 221
e 100 225
e 100 233
e 100 234
e 100 238
e 100 240
e 100 244
e 100 245
e 100 249
e 100 251
e 100 253
e 100 256
e 100 262
e 100 270
e 100 278
e 100 280
e 100 282
e 100 290
e 100 293
e 100 299
e 100 300
e 100 306
e 100 307
e 100 308
e 100 311
e 100 312
e 100 314
e 100 316
e 100 319
e 100 330
e 100 340
e 100 342
e 100 343
e 100 346
e 100 349
e 100 354
e 100 364
e 100 366
e 100 369
e 100 371
e 100 376
e 100 378
e 100 386
e 100 391
e 100 394
e 100 399
e 100 401
e 100 403
e 100 404
e 100 409
e 100 411
e 100 412
e 100 413
e 100 414
e 100 415
e 100 422
e 100 423
e 100 424
e 100 430
e 100 432
e 100 433
e 100 434
e 100 445
e 100 447
e 100 448
e 100 450
e 100 455
e 100 457
e 100 459
e 100 465
e 100 469
e 100 470
e 100 472
e 100 473
e 100 476
e 100 481
e 101 105
e 101 106
e 101 109
e 101 110
e 101 122
e 101 123
e 101 124
e 101 127
e 101 132
e 101 133
e 101 136
e 101 141
e 101 143
e 101 144
e 101 146
e 101 153
e 101 154
e 101 159
e 101 171
e 101 173
e 101 189
e 101 195
e 101 202
e 101 203
e 101 204
e 101 211
e 101 218
e 101 219
e 101 221
e 101 227
e 101 230
e 101 231
e 101 233
e 101 236
e 101 244
e 101 246
e 101 248
e 101 251
e 101 252
e 101 253
e 101 254
e 101 258
e 101 265
e 101 266
e 101 268
e 101 275
e 101 277
e 101 280
e 101 283
e 101 285
e 101 288
e 101 301
e 101 302
e 101 305
e 101 307
e 101 308
e 101 311
e 101 313
e 101 315
e 101 325
e 101 326
e 101 332
e 101 336
e 101 340
e 101 349
e 101 353
e 101 354
e 101 356
e 101 363
e 101 367
e 101 368
e 101 371
e 101 374
e 101 390
e 101 394
e 101 399
e 101 403
e 101 406
e 101 407
e 101 408
e 101 409
e 101 410
e 101 418
e 101 421
e 101 422
e 101 423
e 101 427
e 101 428
e 101 432
e 101 440
e 101 444
e 101 446
e 101 447
e 101 452
e 101 455
e 101 456
e 101 460
e 101 461
e 101 463
e 101 464
e 101 471
e 101 472
e 101 475
e 101 477
e 101 478
e 101 481
e 101 482
e 101 485
e 101 500
e 102 103
e 102 104
e 102 105
e 102 110
e 102 111
e 102 112
e 102 115
e 102 117
e 102 118
e 102 131
e 102 134
e 102 136
e 102 137
e 102 138
e 102 142
e 102 143
e 102 146
e 102 149
e 102 154
e 102 157
e 102 164
e 102 167
e 102 168
e 102 169
e 102 170
e 102 172
e 102 173
e 102 175
e 102 177
e 102 186
e 102 187
e 102 190
e 102 191
e 102 192
e 102 196
e 102 198
e 102 201
e 102 204
e 102 206
e 102 220
e 102 229
e 102 230
e 102 240
e 102 241
e 102 245
e 102 249
e 102 252
e 102 253
e 102 254
e 102 261
e 102 265
e 102 270
e 102 272
e 102 274
e 102 275
e 102 276
e 102 282
e 102 283
e 102 289
e 102 290
e 102 291
e 102 294
e 102 304
e 102 305
e 102 311
e 102 312
e 102 318
e 102 321
e 102 322
e 102 323
e 102 324
e 102 326
e 102 332
e 102 333
e 102 334
e 102 335
e 102 337
e 102 339
e 102 341
e 102 342
e 102 343
e 102 344
e 102 346
e 102 347
e 102 350
e 102 351
e 102 358
e 102 364
e 102 365
e 102 371
e 102 373
e 102 376
e 102 377
e 102 378
e 102 384
e 102 385
e 102 395
e 102 396
e 102 399
e 102 408
e 102 411
e 102 412
e 102 413
e 102 417
e 102 418
e 102 423
e 102 425
e 102 426
e 102 427
e 102 428
e 102 433
e 102 437
e 102 440
e 102 451
e 102 453
e 102 455
e 102 459
e 102 462
e 102 464
e 102 474
e 102 476
e 102 481
e 102 483
e 102 484
e 102 495
e 102 498
e 102 499
e 102 500
e 103 104
e 103 105
e 103 108
e 103 110
e 103 111
e 103 113
e 103 122
e 103 123
e 103 133
e 103 139
e 103 141
e 103 146
e 103 147
e 103 149
e 103 153
e 103 163
e 103 164
e 103 173
e 103 175
e 103 179
e 103 184
e 103 185
e 103 187
e 103 188
e 103 190
e 103 196
e 103 198
e 103 199
e 103 200
e 103 203
e 103 204
e 103 211
e 103 213
e 103 214
e 103 216
e 103 217
e 103 219
e 103 221
e 103 222
e 103 226
e 103 227
e 103 235
e 103 236
e 103 240
e 103 241
e 103 242
e 103 243
e 103 244
e 103 246
e 103 251
e 103 253
e 103 254
e 103 256
e 103 257
e 103 261
e 103 266
e 103 268
e 103 274
e 103 275
e 103 278
e 103 282
e 103 285
e 103 286
e 103 291
e 103 292
e 103 295
e 103 302
e 103 306
e 103 311
e 103 316
e 103 317
e 103 318
e 103 325
e 103 327
e 103 331
e 103 334
e 103 336
e 103 337
e 103 340
e 103 341
e 103 345
e 103 346
e 103 349
e 103 350
e 103 351
e 103 352
e 103 360
e 103 376
e 103 378
e 103 388
e 103 389
e 103 392
e 103 393
e 103 395
e 103 398
e 103 400
e 103 401
e 103 405
e 103 409
e 103 410
e 103 411
e 103 412
e 103 415
e 103 416
e 103 417
e 103 418
e 103 419
e 103 421
e 103 424
e 103 432
e 103 434
e 103 440
e 103 441
e 103 443
e 103 444
e 103 453
e 103 456
e 103 458
e 103 461
e 103 462
e 103 465
e 103 474
e 103 475
e 103 476
e 103 481
e 103 485
e 103 491
e 103 492
e 103 493
e 103 494
e 104 105
e 104 106
e 104 107
e 104 108
e 104 113
e 104 114
e 104 116
e 104 117
e 104 121
e 104 122
e 104 124
e 104 126
e 104 129
e 104 131
e 104 132
e 104 142
e 104 143
e 104 145
e 104 148
e 104 150
e 104 151
e 104 152
e 104 155
e 104 156
e 104 159
e 104 161
e 104 169
e 104 179
e 104 180
e 104 183
e 104 188
e 104 191
e 104 194
e 104 197
e 104 198
e 104 199
e 104 202
e 104 208
e 104 210
e 104 218
e 104 221
e 104 222
e 104 234
e 104 237
e 104 242
e 104 245
e 104 255
e 104 256
e 104 260
e 104 263
e 104 264
e 104 265
e 104 270
e 104 280
e 104 289
e 104 293
e 104 294
e 104 302
e 104 304
e 104 306
e 104 308
e 104 312
e 104 314
e 104 316
e 104 321
e 104 322
e 104 323
e 104 326
e 104 330
e 104 333
e 104 345
e 104 346
e 104 349
e 104 351
e 104 357
e 104 358
e 104 359
e 104 365
e 104 372
e 104 374
e 104 390
e 104 393
e 104 394
e 104 409
e 104 412
e 104 414
e 104 415
e 104 418
e 104 419
e 104 423
e 104 428
e 104 432
e 104 439
e 104 444
e 104 446
e 104 448
e 104 449
e 104 455
e 104 458
e 104 460
e 104 461
e 104 466
e 104 467
e 104 469
e 104 478
e 104 481
e 104 484
e 104 485
e 104 490
e 104 491
e 104 496
e 104 498
e 104 499
e 104 500
e 105 107
e 105 115
e 105 116
e 105 119
e 105 120
e 105 126
e 105 128
e 105 135
e 105 136
e 105 137
e 105 144
e 105 145
e 105 146
e 105 148
e 105 153
e 105 156
e 105 159
e 105 162
e 105 163
e 105 164
e 105 166
e 105 167
e 105 176
e 105 181
e 105 182
e 105 184
e 105 186
e 105 193
e 105 195
e 105 197
e 105 199
e 105 202
e 105 208
e 105 210
e 105 213
e 105 215
e 105 217
e 105 224
e 105 227
e 105 228
e 105 231
e 105 238
e 105 243
e 105 245
e 105 247
e 105 249
e 105 250
e 105 253
e 105 254
e 105 257
e 105 259
e 105 261
e 105 272
e 105 273
e 105 274
e 105 275
e 105 276
e 105 292
e 105 296
e 105 299
e 105 300
e 105 306
e 105 313
e 105 315
e 105 316
e 105 317
e 105 318
e 105 320
e 105 327
e 105 332
e 105 343
e 105 349
e 105 356
e 105 357
e 105 364
e 105 366
e 105 379
e 105 384
e 105 387
e 105 389
e 105 390
e 105 391
e 105 397
e 105 401
e 105 410
e 105 413
e 105 414
e 105 416
e 105 420
e 105 421
e 105 422
e 105 423
e 105 425
e 105 427
e 105 432
e 105 433
e 105 437
e 105 441
e 105 444
e 105 445
e 105 453
e 105 461
e 105 463
e 105 466
e 105 469
e 105 472
e 105 475
e 105 478
e 105 480
e 105 484
e 105 489
e 105 493
e 106 111
e 106 114
e 106 115
e 106 116
e 106 118
e 106 119
e 106 120
e 106 122
e 106 124
e 106 126
e 106 129
e 106 130
e 106 137
e 106 143
e 106 145
e 106 149
e 106 152
e 106 160
e 106 162
e 106 169
e 106 170
e 106 173
e 106 174
e 106 179
e 106 185
e 106 191
e 106 192
e 106 194
e 106 196
e 106 198
e 106 200
e 106 201
e 106 205
e 106 209
e 106 213
e 106 219
e 106 220
e 106 221
e 106 222
e 106 223
e 106 225
e 106 229
e 106 235
e 106 236
e 106 237
e 106 238
e 106 241
e 106 244
e 106 248
e 106 250
e 106 251
e 106 252
e 106 255
e 106 258
e 106 262
e 106 263
e 106 274
e 106 276
e 106 280
e 106 283
e 106 285
e 106 286
e 106 288
e 106 301
e 106 305
e 106 312
e 106 313
e 106 314
e 106 316
e 106 320
e 106 321
e 106 323
e 106 324
e 106 325
e 106 326
e 106 329
e 106 330
e 106 332
e 106 333
e 106 334
e 106 337
e 106 340
e 106 342
e 106 343
e 106 344
e 106 345
e 106 346
e 106 348
e 106 352
e 106 353
e 106 357
e 106 369
e 106 373
e 106 377
e 106 387
e 106 393
e 106 394
e 106 400
e 106 401
e 106 403
e 106 404
e 106 406
e 106 407
e 106 408
e 106 418
e 106 420
e 106 428
e 106 433
e 106 435
e 106 437
e 106 440
e 106 445
e 106 448
e 106 459
e 106 462
e 106 463
e 106 466
e 106 478
e 106 483
e 106 485
e 106 488
e 106 489
e 106 491
e 106 494
e 106 495
e 106 497
e 106 498
e 107 108
e 107 110
e 107 123
e 107 130
e 107 131
e 107 132
e 107 135
e 107 139
e 107 143
e 107 144
e 107 147
e 107 150
e 107 152
e 107 154
e 107 158
e 107 163
e 107 166
e 107 167
e 107 172
e 107 175
e 107 176
e 107 177
e 107 179
e 107 180
e 107 184
e 107 185
e 107 188
e 107 190
e 107 191
e 107 193
e 107 196
e 107 198
e 107 206
e 107 208
e 107 209
e 107 211
e 107 219
e 107 224
e 107 225
e 107 228
e 107 229
e 107 231
e 107 233
e 107 242
e 107 248
e 107 249
e 107 250
e 107 252
e 107 255
e 107 267
e 107 269
e 107 271
e 107 278
e 107 291
e 107 293
e 107 294
e 107 298
e 107 307
e 107 311
e 107 318
e 107 325
e 107 327
e 107 331
e 107 335
e 107 341
e 107 343
e 107 344
e 107 345
e 107 351
e 107 366
e 107 369
e 107 372
e 107 375
e 107 382
e 107 392
e 107 393
e 107 396
e 107 399
e 107 401
e 107 403
e 107 404
e 107 412
e 107 413
e 107 415
e 107 417
e 107 418
e 107 421
e 107 424
e 107 426
e 107 428
e 107 429
e 107 430
e 107 440
e 107 442
e 107 444
e 107 449
e 107 450
e 107 454
e 107 456
e 107 464
e 107 467
e 107 470
e 107 472
e 107 484
e 107 485
e 107 488
e 107 491
e 107 495
e 107 497
e 107 500
e 108 109
e 108 112
e 108 114
e 108 117
e 108 118
e 108 123
e 108 128
e 108 134
e 108 136
e 108 137
e 108 141
e 108 142
e 108 143
e 108 149
e 108 156
e 108 157
e 108 160
e 108 165
e 108 166
e 108 167
e 108 169
e 108 170
e 108 171
e 108 173
e 108 176
e 108 181
e 108 189
e 108 190
e 108 191
e 108 193
e 108 194
e 108 200
e 108 211
e 108 216
e 108 222
e 108 224
e 108 225
e 108 227
e 108 228
e 108 230
e 108 241
e 108 249
e 108 256
e 108 258
e 108 272
e 108 273
e 108 274
e 108 277
e 108 278
e 108 279
e 108 280
e 108 283
e 108 287
e 108 290
e 108 293
e 108 304
e 108 312
e 108 314
e 108 316
e 108 318
e 108 320
e 108 324
e 108 327
e 108 331
e 108 337
e 108 339
e 108 340
e 108 344
e 108 348
e 108 349
e 108 350
e 108 352
e 108 362
e 108 363
e 108 369
e 108 373
e 108 377
e 108 378
e 108 383
e 108 384
e 108 394
e 108 398
e 108 404
e 108 410
e 108 413
e 108 415
e 108 425
e 108 427
e 108 431
e 108 432
e 108 437
e 108 439
e 108 444
e 108 454
e 108 462
e 108 465
e 108 467
e 108 470
e 108 472
e 108 474
e 108 475
e 108 479
e 108 481
e 108 482
e 108 484
e 108 495
e 108 497
e 108 500
e 109 110
e 109 113
e 109 114
e 109 117
e 109 122
e 109 125
e 109 127
e 109 134
e 109 136
e 109 143
e 109 145
e 109 149
e 109 150
e 109 151
e 109 154
e 109 155
e 109 156
e 109 161
e 109 163
e 109 164
e 109 169
e 109 170
e 109 171
e 109 174
e 109 175
e 109 180
e 109 181
e 109 187
e 109 191
e 109 196
e 109 200
e 109 205
e 109 210
e 109 221
e 109 223
e 109 224
e 109 228
e 109 229
e 109 232
e 109 233
e 109 238
e 109 239
e 109 240
e 109 243
e 109 244
e 109 246
e 109 247
e 109 253
e 109 255
e 109 256
e 109 259
e 109 267
e 109 273
e 109 280
e 109 281
e 109 285
e 109 287
e 109 288
e 109 297
e 109 302
e 109 305
e 109 307
e 109 313
e 109 314
e 109 315
e 109 316
e 109 318
e 109 321
e 109 324
e 109 326
e 109 329
e 109 330
e 109 336
e 109 337
e 109 338
e 109 341
e 109 345
e 109 348
e 109 349
e 109 351
e 109 358
e 109 372
e 109 379
e 109 383
e 109 385
e 109 388
e 109 391
e 109 392
e 109 394
e 109 399
e 109 400
e 109 408
e 109 414
e 109 416
e 109 419
e 109 420
e 109 421
e 109 422
e 109 434
e 109 438
e 109 440
e 109 446
e 109 447
e 109 448
e 109 449
e 109 450
e 109 451
e 109 456
e 109 460
e 109 464
e 109 465
e 109 468
e 109 471
e 109 474
e 109 477
e 109 478
e 109 481
e 109 488
e 109 490
e 109 496
e 110 112
e 110 116
e 110 117
e 110 119
e 110 125
e 110 129
e 110 134
e 110 145
e 110 146
e 110 149
e 110 152
e 110 154
e 110 157
e 110 159
e 110 160
e 110 164
e 110 167
e 110 169
e 110 173
e 110 179
e 110 181
e 110 182
e 110 185
e 110 186
e 110 188
e 110 196
e 110 197
e 110 198
e 110 199
e 110 204
e 110 207
e 110 211
e 110 214
e 110 216
e 110 217
e 110 218
e 110 222
e 110 223
e 110 224
e 110 232
e 110 233
e 110 235
e 110 238
e 110 239
e 110 247
e 110 249
e 110 253
e 110 256
e 110 258
e 110 263
e 110 267
e 110 271
e 110 279
e 110 280
e 110 281
e 110 282
e 110 283
e 110 284
e 110 287
e 110 289
e 110 290
e 110 296
e 110 299
e 110 300
e 110 302
e 110 303
e 110 304
e 110 305
e 110 309
e 110 310
e 110 313
e 110 315
e 110 322
e 110 323
e 110 325
e 110 333
e 110 334
e 110 335
e 110 340
e 110 344
e 110 346
e 110 352
e 110 356
e 110 357
e 110 360
e 110 364
e 110 365
e 110 369
e 110 371
e 110 374
e 110 380
e 110 384
e 110 395
e 110 397
e 110 399
e 110 407
e 110 414
e 110 419
e 110 420
e 110 421
e 110 423
e 110 426
e 110 428
e 110 433
e 110 435
e 110 439
e 110 440
e 110 443
e 110 444
e 110 448
e 110 449
e 110 450
e 110 453
e 110 460
e 110 465
e 110 466
e 110 467
e 110 470
e 110 473
e 110 475
e 110 481
e 110 482
e 110 484
e 110 487
e 110 488
e 110 492
e 110 493
e 110 496
e 111 115
e 111 116
e 111 120
e 111 123
e 111 124
e 111 126
e 111 128
e 111 129
e 111 133
e 111 136
e 111 142
e 111 160
e 111 161
e 111 162
e 111 165
e 111 167
e 111 170
e 111 174
e 111 176
e 111 179
e 111 180
e 111 186
e 111 195
e 111 202
e 111 207
e 111 208
e 111 210
e 111 211
e 111 213
e 111 215
e 111 218
e 111 222
e 111 224
e 111 228
e 111 231
e 111 235
e 111 236
e 111 242
e 111 247
e 111 253
e 111 256
e 111 258
e 111 259
e 111 264
e 111 265
e 111 268
e 111 273
e 111 274
e 111 277
e 111 278
e 111 287
e 111 288
e 111 292
e 111 293
e 111 296
e 111 299
e 111 303
e 111 304
e 111 308
e 111 315
e 111 316
e 111 323
e 111 332
e 111 335
e 111 336
e 111 338
e 111 341
e 111 346
e 111 350
e 111 352
e 111 356
e 111 357
e 111 359
e 111 365
e 111 366
e 111 371
e 111 374
e 111 375
e 111 380
e 111 383
e 111 385
e 111 390
e 111 392
e 111 396
e 111 397
e 111 407
e 111 408
e 111 410
e 111 412
e 111 417
e 111 419
e 111 427
e 111 429
e 111 430
e 111 432
e 111 433
e 111 435
e 111 437
e 111 443
e 111 444
e 111 446
e 111 450
e 111 455
e 111 458
e 111 459
e 111 462
e 111 464
e 111 467
e 111 468
e 111 471
e 111 472
e 111 474
e 111 476
e 111 478
e 111 488
e 111 491
e 111 492
e 111 498
e 111 499
e 112 117
e 112 118
e 112 119
e 112 122
e 112 124
e 112 127
e 112 129
e 112 130
e 112 137
e 112 138
e 112 139
e 112 142
e 112 143
e 112 145
e 112 149
e 112 151
e 112 154
e 112 158
e 112 163
e 112 173
e 112 182
e 112 184
e 112 185
e 112 196
e 112 197
e 112 199
e 112 200
e 112 209
e 112 211
e 112 220
e 112 223
e 112 226
e 112 233
e 112 237
e 112 241
e 112 244
e 112 251
e 112 253
e 112 255
e 112 257
e 112 259
e 112 263
e 112 266
e 112 267
e 112 271
e 112 273
e 112 281
e 112 307
e 112 309
e 112 311
e 112 315
e 112 316
e 112 317
e 112 320
e 112 326
e 112 328
e 112 329
e 112 330
e 112 333
e 112 339
e 112 340
e 112 352
e 112 354
e 112 360
e 112 361
e 112 366
e 112 373
e 112 377
e 112 383
e 112 386
e 112 387
e 112 389
e 112 390
e 112 391
e 112 392
e 112 393
e 112 397
e 112 400
e 112 402
e 112 408
e 112 411
e 112 412
e 112 415
e 112 416
e 112 417
e 112 418
e 112 419
e 112 423
e 112 434
e 112 437
e 112 440
e 112 445
e 112 450
e 112 459
e 112 469
e 112 473
e 112 488
e 112 490
e 112 491
e 112 496
e 112 497
e 113 114
e 113 116
e 113 120
e 113 125
e 113 126
e 113 139
e 113 141
e 113 143
e 113 151
e 113 152
e 113 155
e 113 157
e 113 158
e 113 160
e 113 161
e 113 162
e 113 166
e 113 171
e 113 176
e 113 177
e 113 180
e 113 190
e 113 193
e 113 195
e 113 196
e 113 198
e 113 207
e 113 209
e 113 211
e 113 212
e 113 213
e 113 215
e 113 216
e 113 219
e 113 220
e 113 223
e 113 224
e 113 225
e 113 226
e 113 229
e 113 255
e 113 286
e 113 289
e 113 297
e 113 303
e 113 308
e 113 314
e 113 319
e 113 320
e 113 328
e 113 329
e 113 331
e 113 335
e 113 338
e 113 340
e 113 347
e 113 349
e 113 355
e 113 361
e 113 363
e 113 369
e 113 374
e 113 376
e 113 382
e 113 383
e 113 384
e 113 385
e 113 389
e 113 390
e 113 392
e 113 401
e 113 402
e 113 404
e 113 405
e 113 406
e 113 407
e 113 408
e 113 409
e 113 410
e 113 417
e 113 419
e 113 422
e 113 427
e 113 440
e 113 441
e 113 442
e 113 443
e 113 444
e 113 446
e 113 447
e 113 449
e 113 451
e 113 457
e 113 458
e 113 460
e 113 462
e 113 463
e 113 471
e 113 473
e 113 475
e 113 481
e 113 482
e 113 484
e 113 488
e 113 489
e 113 495
e 113 496
e 113 497
e 113 500
e 114 116
e 114 124
e 114 126
e 114 129
e 114 131
e 114 132
e 114 134
e 114 136
e 114 140
e 114 141
e 114 142
e 114 143
e 114 148
e 114 151
e 114 152
e 114 159
e 114 164
e 114 167
e 114 168
e 114 171
e 114 172
e 114 178
e 114 179
e 114 180
e 114 181
e 114 187
e 114 198
e 114 205
e 114 207
e 114 208
e 114 209
e 114 211
e 114 217
e 114 219
e 114 221
e 114 223
e 114 224
e 114 227
e 114 229
e 114 238
e 114 239
e 114 241
e 114 245
e 114 248
e 114 253
e 114 257
e 114 258
e 114 262
e 114 263
e 114 268
e 114 269
e 114 270
e 114 277
e 114 283
e 114 286
e 114 287
e 114 289
e 114 290
e 114 292
e 114 293
e 114 295
e 114 296
e 114 297
e 114 299
e 114 306
e 114 307
e 114 310
e 114 312
e 114 317
e 114 318
e 114 325
e 114 332
e 114 340
e 114 343
e 114 348
e 114 349
e 114 353
e 114 354
e 114 359
e 114 364
e 114 368
e 114 372
e 114 373
e 114 377
e 114 388
e 114 389
e 114 390
e 114 394
e 114 400
e 114 402
e 114 412
e 114 417
e 114 423
e 114 426
e 114 427
e 114 433
e 114 437
e 114 440
e 114 441
e 114 443
e 114 448
e 114 449
e 114 451
e 114 453
e 114 455
e 114 456
e 114 458
e 114 459
e 114 460
e 114 461
e 114 462
e 114 465
e 114 467
e 114 471
e 114 474
e 114 476
e 114 479
e 114 481
e 114 484
e 114 485
e 114 486
e 114 491
e 114 493
e 114 499
e 115 117
e 115 119
e 115 120
e 115 122
e 115 133
e 115 134
e 115 135
e 115 136
e 115 138
e 115 139
e 115 140
e 115 145
e 115 146
e 115 147
e 115 150
e 115 151
e 115 154
e 115 158
e 115 159
e 115 164
e 115 165
e 115 168
e 115 177
e 115 178
e 115 184
e 115 188
e 115 190
e 115 197
e 115 198
e 115 201
e 115 208
e 115 210
e 115 211
e 115 215
e 115 218
e 115 230
e 115 231
e 115 233
e 115 236
e 115 237
e 115 239
e 115 245
e 115 249
e 115 250
e 115 251
e 115 253
e 115 254
e 115 256
e 115 258
e 115 259
e 115 261
e 115 263
e 115 266
e 115 269
e 115 270
e 115 273
e 115 278
e 115 280
e 115 282
e 115 285
e 115 286
e 115 292
e 115 293
e 115 294
e 115 297
e 115 303
e 115 304
e 115 305
e 115 311
e 115 314
e 115 321
e 115 322
e 115 328
e 115 330
e 115 332
e 115 333
e 115 334
e 115 345
e 115 346
e 115 350
e 115 352
e 115 357
e 115 360
e 115 362
e 115 364
e 115 365
e 115 368
e 115 369
e 115 372
e 115 377
e 115 382
e 115 383
e 115 384
e 115 385
e 115 386
e 115 387
e 115 391
e 115 392
e 115 399
e 115 400
e 115 407
e 115 411
e 115 413
e 115 417
e 115 419
e 115 420
e 115 423
e 115 424
e 115 429
e 115 433
e 115 435
e 115 436
e 115 441
e 115 442
e 115 444
e 115 450
e 115 451
e 115 453
e 115 455
e 115 458
e 115 470
e 115 471
e 115 473
e 115 478
e 115 479
e 115 484
e 115 490
e 115 495
e 115 496
e 115 499
e 115 500
e 116 121
e 116 131
e 116 134
e 116 138
e 116 142
e 116 144
e 116 145
e 116 147
e 116 151
e 116 152
e 116 156
e 116 157
e 116 160
e 116 162
e 116 170
e 116 179
e 116 180
e 116 184
e 116 191
e 116 192
e 116 195
e 116 206
e 116 207
e 116 208
e 116 209
e 116 211
e 116 215
e 116 221
e 116 222
e 116 226
e 116 227
e 116 228
e 116 229
e 116 231
e 116 232
e 116 234
e 116 237
e 116 240
e 116 246
e 116 250
e 116 256
e 116 257
e 116 260
e 116 261
e 116 266
e 116 268
e 116 269
e 116 273
e 116 275
e 116 276
e 116 280
e 116 282
e 116 283
e 116 287
e 116 290
e 116 292
e 116 296
e 116 298
e 116 303
e 116 304
e 116 306
e 116 307
e 116 313
e 116 316
e 116 320
e 116 321
e 116 326
e 116 332
e 116 335
e 116 349
e 116 350
e 116 352
e 116 357
e 116 358
e 116 363
e 116 366
e 116 367
e 116 368
e 116 371
e 116 372
e 116 375
e 116 381
e 116 387
e 116 388
e 116 390
e 116 391
e 116 392
e 116 393
e 116 394
e 116 397
e 116 399
e 116 400
e 116 401
e 116 405
e 116 410
e 116 415
e 116 417
e 116 420
e 116 421
e 116 424
e 116 426
e 116 427
e 116 428
e 116 429
e 116 430
e 116 431
e 116 433
e 116 434
e 116 436
e 116 437
e 116 440
e 116 452
e 116 455
e 116 464
e 116 465
e 116 471
e 116 475
e 116 479
e 116 483
e 116 487
e 116 489
e 116 491
e 116 495
e 116 500
e 117 120
e 117 122
e 117 124
e 117 142
e 117 144
e 117 149
e 117 150
e 117 154
e 117 162
e 117 163
e 117 164
e 117 169
e 117 170
e 117 172
e 117 176
e 117 177
e 117 178
e 117 180
e 117 181
e 117 187
e 117 189
e 117 192
e 117 200
e 117 203
e 117 204
e 117 207
e 117 208
e 117 209
e 117 217
e 117 218
e 117 223
e 117 227
e 117 230
e 117 236
e 117 237
e 117 238
e 117 241
e 117 243
e 117 245
e 117 252
e 117 254
e 117 255
e 117 258
e 117 261
e 117 263
e 117 268
e 117 271
e 117 272
e 117 273
e 117 274
e 117 275
e 117 277
e 117 283
e 117 285
e 117 290
e 117 297
e 117 302
e 117 307
e 117 310
e 117 318
e 117 321
e 117 323
e 117 327
e 117 334
e 117 337
e 117 340
e 117 343
e 117 344
e 117 355
e 117 356
e 117 357
e 117 362
e 117 364
e 117 367
e 117 368
e 117 375
e 117 380
e 117 381
e 117 384
e 117 387
e 117 397
e 117 399
e 117 401
e 117 402
e 117 404
e 117 405
e 117 410
e 117 416
e 117 417
e 117 418
e 117 426
e 117 428
e 117 433
e 117 434
e 117 435
e 117 436
e 117 438
e 117 440
e 117 441
e 117 444
e 117 448
e 117 457
e 117 462
e 117 468
e 117 469
e 117 472
e 117 483
e 117 486
e 117 488
e 117 490
e 117 493
e 117 495
e 117 497
e 118 121
e 118 123
e 118 124
e 118 126
e 118 127
e 118 131
e 118 143
e 118 149
e 118 150
e 118 153
e 118 154
e 118 162
e 118 164
e 118 166
e 118 167
e 118 168
e 118 172
e 118 174
e 118 180
e 118 186
e 118 187
e 118 197
e 118 201
e 118 204
e 118 206
e 118 209
e 118 212
e 118 214
e 118 218
e 118 219
e 118 224
e 118 233
e 118 240
e 118 243
e 118 252
e 118 256
e 118 257
e 118 259
e 118 260
e 118 271
e 118 273
e 118 275
e 118 278
e 118 284
e 118 293
e 118 295
e 118 297
e 118 298
e 118 302
e 118 304
e 118 305
e 118 306
e 118 312
e 118 318
e 118 325
e 118 328
e 118 330
e 118 331
e 118 336
e 118 344
e 118 347
e 118 349
e 118 352
e 118 354
e 118 356
e 118 358
e 118 360
e 118 365
e 118 367
e 118 374
e 118 376
e 118 377
e 118 383
e 118 387
e 118 388
e 118 389
e 118 390
e 118 395
e 118 398
e 118 400
e 118 402
e 118 403
e 118 406
e 118 407
e 118 408
e 118 409
e 118 412
e 118 416
e 118 419
e 118 428
e 118 429
e 118 430
e 118 435
e 118 438
e 118 441
e 118 454
e 118 455
e 118 456
e 118 457
e 118 462
e 118 463
e 118 477
e 118 486
e 118 490
e 118 495
e 118 496
e 119 120
e 119 125
e 119 126
e 119 129
e 119 133
e 119 134
e 119 136
e 119 142
e 119 143
e 119 145
e 119 154
e 119 155
e 119 157
e 119 159
e 119 161
e 119 162
e 119 165
e 119 167
e 119 171
e 119 172
e 119 176
e 119 177
e 119 181
e 119 182
e 119 188
e 119 195
e 119 197
e 119 198
e 119 205
e 119 207
e 119 227
e 119 234
e 119 235
e 119 237
e 119 240
e 119 241
e 119 243
e 119 244
e 119 246
e 119 255
e 119 259
e 119 261
e 119 264
e 119 268
e 119 269
e 119 270
e 119 272
e 119 289
e 119 291
e 119 293
e 119 294
e 119 295
e 119 297
e 119 299
e 119 300
e 119 304
e 119 305
e 119 313
e 119 317
e 119 318
e 119 320
e 119 325
e 119 330
e 119 331
e 119 333
e 119 335
e 119 342
e 119 344
e 119 345
e 119 347
e 119 350
e 119 354
e 119 358
e 119 363
e 119 367
e 119 369
e 119 375
e 119 379
e 119 381
e 119 383
e 119 384
e 119 385
e 119 388
e 119 389
e 119 390
e 119 391
e 119 393
e 119 394
e 119 396
e 119 399
e 119 401
e 119 402
e 119 405
e 119 406
e 119 409
e 119 423
e 119 427
e 119 432
e 119 437
e 119 440
e 119 441
e 119 442
e 119 443
e 119 446
e 119 447
e 119 451
e 119 455
e 119 465
e 119 471
e 119 473
e 119 495
e 119 497
e 119 499
e 119 500
e 120 126
e 120 128
e 120 129
e 120 131
e 120 132
e 120 137
e 120 138
e 120 139
e 120 145
e 120 146
e 120 147
e 120 150
e 120 152
e 120 153
e 120 160
e 120 161
e 120 169
e 120 175
e 120 181
e 120 185
e 120 188
e 120 194
e 120 204
e 120 208
e 120 209
e 120 211
e 120 214
e 120 220
e 120 221
e 120 223
e 120 224
e 120 227
e 120 229
e 120 230
e 120 232
e 120 234
e 120 236
e 120 238
e 120 244
e 120 247
e 120 248
e 120 251
e 120 257
e 120 258
e 120 259
e 120 264
e 120 266
e 120 268
e 120 269
e 120 274
e 120 275
e 120 279
e 120 280
e 120 281
e 120 285
e 120 289
e 120 290
e 120 292
e 120 294
e 120 298
e 120 305
e 120 306
e 120 310
e 120 313
e 120 315
e 120 319
e 120 323
e 120 324
e 120 326
e 120 328
e 120 330
e 120 334
e 120 340
e 120 341
e 120 342
e 120 344
e 120 350
e 120 351
e 120 353
e 120 354
e 120 358
e 120 359
e 120 363
e 120 364
e 120 365
e 120 367
e 120 378
e 120 379
e 120 380
e 120 388
e 120 390
e 120 397
e 120 406
e 120 410
e 120 412
e 120 428
e 120 430
e 120 436
e 120 439
e 120 440
e 120 441
e 120 442
e 120 444
e 120 447
e 120 448
e 120 450
e 120 457
e 120 459
e 120 470
e 120 474
e 120 481
e 121 126
e 121 127
e 121 131
e 121 138
e 121 139
e 121 143
e 121 145
e 121 146
e 121 152
e 121 154
e 121 155
e 121 159
e 121 165
e 121 168
e 121 172
e 121 173
e 121 176
e 121 177
e 121 181
e 121 182
e 121 187
e 121 189
e 121 191
e 121 192
e 121 194
e 121 195
e 121 196
e 121 199
e 121 200
e 121 204
e 121 210
e 121 220
e 121 222
e 121 223
e 121 225
e 121 228
e 121 233
e 121 234
e 121 237
e 121 239
e 121 240
e 121 241
e 121 242
e 121 243
e 121 244
e 121 246
e 121 255
e 121 256
e 121 258
e 121 261
e 121 262
e 121 266
e 121 268
e 121 270
e 121 275
e 121 278
e 121 284
e 121 285
e 121 286
e 121 288
e 121 289
e 121 293
e 121 297
e 121 299
e 121 305
e 121 311
e 121 313
e 121 314
e 121 319
e 121 328
e 121 336
e 121 345
e 121 347
e 121 348
e 121 355
e 121 356
e 121 361
e 121 366
e 121 367
e 121 372
e 121 373
e 121 376
e 121 377
e 121 380
e 121 381
e 121 383
e 121 386
e 121 387
e 121 388
e 121 390
e 121 394
e 121 402
e 121 405
e 121 407
e 121 408
e 121 409
e 121 412
e 121 417
e 121 419
e 121 420
e 121 429
e 121 432
e 121 435
e 121 440
e 121 443
e 121 450
e 121 452
e 121 453
e 121 456
e 121 462
e 121 466
e 121 471
e 121 474
e 121 477
e 121 483
e 121 484
e 121 490
e 121 500
e 122 123
e 122 124
e 122 125
e 122 130
e 122 137
e 122 144
e 122 152
e 122 157
e 122 159
e 122 160
e 122 166
e 122 167
e 122 177
e 122 181
e 122 191
e 122 193
e 122 195
e 122 196
e 122 199
e 122 203
e 122 206
e 122 208
e 122 213
e 122 215
e 122 216
e 122 219
e 122 222
e 122 223
e 122 229
e 122 235
e 122 239
e 122 243
e 122 244
e 122 247
e 122 249
e 122 253
e 122 259
e 122 264
e 122 266
e 122 267
e 122 272
e 122 274
e 122 276
e 122 279
e 122 280
e 122 283
e 122 286
e 122 287
e 122 288
e 122 291
e 122 292
e 122 296
e 122 303
e 122 307
e 122 308
e 122 320
e 122 321
e 122 322
e 122 323
e 122 324
e 122 325
e 122 327
e 122 328
e 122 329
e 122 330
e 122 333
e 122 338
e 122 340
e 122 348
e 122 349
e 122 350
e 122 351
e 122 361
e 122 363
e 122 364
e 122 365
e 122 368
e 122 370
e 122 380
e 122 386
e 122 387
e 122 395
e 122 397
e 122 399
e 122 400
e 122 408
e 122 414
e 122 415
e 122 416
e 122 418
e 122 420
e 122 424
e 122 426
e 122 428
e 122 432
e 122 433
e 122 435
e 122 440
e 122 445
e 122 446
e 122 448
e 122 450
e 122 451
e 122 453
e 122 455
e 122 457
e 122 464
e 122 468
e 122 472
e 122 474
e 122 476
e 122 480
e 122 482
e 122 483
e 122 485
e 122 486
e 122 489
e 122 492
e 122 498
e 122 500
e 123 131
e 123 132
e 123 139
e 123 144
e 123 145
e 123 150
e 123 157
e 123 158
e 123 159
e 123 164
e 123 165
e 123 169
e 123 170
e 123 172
e 123 173
e 123 175
e 123 178
e 123 179
e 123 182
e 123 191
e 123 193
e 123 195
e 123 197
e 123 198
e 123 201
e 123 203
e 123 204
e 123 207
e 123 209
e 123 212
e 123 218
e 123 219
e 123 223
e 123 224
e 123 227
e 123 236
e 123 242
e 123 244
e 123 247
e 123 248
e 123 250
e 123 252
e 123 255
e 123 256
e 123 260
e 123 261
e 123 262
e 123 269
e 123 270
e 123 272
e 123 277
e 123 280
e 123 285
e 123 288
e 123 295
e 123 296
e 123 297
e 123 300
e 123 302
e 123 309
e 123 310
e 123 311
e 123 315
e 123 316
e 123 327
e 123 329
e 123 332
e 123 333
e 123 337
e 123 346
e 123 350
e 123 351
e 123 354
e 123 360
e 123 366
e 123 369
e 123 371
e 123 373
e 123 374
e 123 375
e 123 376
e 123 378
e 123 387
e 123 389
e 123 391
e 123 399
e 123 401
e 123 403
e 123 406
e 123 414
e 123 420
e 123 424
e 123 425
e 123 427
e 123 428
e 123 432
e 123 433
e 123 434
e 123 435
e 123 437
e 123 443
e 123 445
e 123 446
e 123 447
e 123 448
e 123 450
e 123 452
e 123 453
e 123 456
e 123 467
e 123 480
e 123 487
e 123 500
e 124 126
e 124 128
e 124 132
e 124 133
e 124 135
e 124 142
e 124 145
e 124 146
e 124 148
e 124 149
e 124 151
e 124 157
e 124 162
e 124 167
e 124 171
e 124 177
e 124 179
e 124 181
e 124 182
e 124 195
e 124 197
e 124 205
e 124 206
e 124 211
e 124 213
e 124 221
e 124 224
e 124 228
e 124 229
e 124 236
e 124 243
e 124 246
e 124 253
e 124 257
e 124 260
e 124 265
e 124 267
e 124 285
e 124 291
e 124 294
e 124 297
e 124 298
e 124 299
e 124 302
e 124 304
e 124 313
e 124 314
e 124 315
e 124 318
e 124 323
e 124 326
e 124 327
e 124 328
e 124 334
e 124 348
e 124 349
e 124 350
e 124 351
e 124 352
e 124 356
e 124 360
e 124 373
e 124 382
e 124 385
e 124 388
e 124 401
e 124 402
e 124 406
e 124 407
e 124 409
e 124 412
e 124 413
e 124 414
e 124 419
e 124 420
e 124 423
e 124 427
e 124 428
e 124 429
e 124 431
e 124 438
e 124 443
e 124 445
e 124 447
e 124 452
e 124 453
e 124 454
e 124 456
e 124 460
e 124 462
e 124 463
e 124 468
e 124 471
e 124 475
e 124 478
e 124 489
e 124 492
e 124 494
e 124 499
e 125 130
e 125 134
e 125 136
e 125 137
e 125 140
e 125 141
e 125 145
e 125 146
e 125 147
e 125 153
e 125 157
e 125 163
e 125 170
e 125 171
e 125 172
e 125 176
e 125 178
e 125 182
e 125 184
e 125 185
e 125 189
e 125 192
e 125 196
e 125 199
e 125 206
e 125 208
e 125 213
e 125 217
e 125 221
e 125 223
e 125 231
e 125 232
e 125 233
e 125 236
e 125 239
e 125 240
e 125 244
e 125 250
e 125 254
e 125 259
e 125 262
e 125 263
e 125 266
e 125 267
e 125 274
e 125 281
e 125 285
e 125 286
e 125 290
e 125 294
e 125 296
e 125 297
e 125 299
e 125 305
e 125 306
e 125 308
e 125 310
e 125 313
e 125 317
e 125 320
e 125 323
e 125 324
e 125 326
e 125 328
e 125 332
e 125 333
e 125 334
e 125 336
e 125 338
e 125 339
e 125 341
e 125 343
e 125 349
e 125 350
e 125 357
e 125 368
e 125 372
e 125 373
e 125 374
e 125 379
e 125 381
e 125 397
e 125 403
e 125 407
e 125 410
e 125 414
e 125 416
e 125 420
e 125 423
e 125 425
e 125 428
e 125 430
e 125 433
e 125 434
e 125 436
e 125 449
e 125 450
e 125 453
e 125 455
e 125 456
e 125 460
e 125 466
e 125 469
e 125 473
e 125 474
e 125 476
e 125 484
e 125 488
e 125 494
e 125 497
e 125 499
e 125 500
e 126 128
e 126 130
e 126 133
e 126 137
e 126 139
e 126 141
e 126 144
e 126 145
e 126 147
e 126 148
e 126 149
e 126 154
e 126 155
e 126 161
e 126 162
e 126 173
e 126 175
e 126 180
e 126 181
e 126 184
e 126 194
e 126 196
e 126 200
e 126 204
e 126 208
e 126 213
e 126 215
e 126 217
e 126 224
e 126 231
e 126 235
e 126 236
e 126 239
e 126 249
e 126 258
e 126 264
e 126 265
e 126 266
e 126 268
e 126 270
e 126 271
e 126 272
e 126 279
e 126 280
e 126 281
e 126 282
e 126 283
e 126 286
e 126 300
e 126 303
e 126 307
e 126 308
e 126 313
e 126 314
e 126 319
e 126 321
e 126 322
e 126 323
e 126 331
e 126 334
e 126 335
e 126 338
e 126 343
e 126 351
e 126 353
e 126 366
e 126 367
e 126 368
e 126 369
e 126 370
e 126 373
e 126 376
e 126 377
e 126 378
e 126 379
e 126 380
e 126 385
e 126 386
e 126 388
e 126 392
e 126 400
e 126 408
e 126 417
e 126 418
e 126 420
e 126 421
e 126 425
e 126 427
e 126 428
e 126 431
e 126 437
e 126 440
e 126 441
e 126 442
e 126 444
e 126 447
e 126 448
e 126 449
e 126 451
e 126 454
e 126 455
e 126 459
e 126 461
e 126 474
e 126 475
e 126 477
e 126 478
e 126 483
e 126 485
e 126 486
e 126 487
e 126 494
e 126 497
e 127 128
e 127 129
e 127 131
e 127 133
e 127 136
e 127 140
e 127 142
e 127 146
e 127 147
e 127 149
e 127 154
e 127 156
e 127 158
e 127 160
e 127 162
e 127 167
e 127 171
e 127 172
e 127 173
e 127 174
e 127 177
e 127 183
e 127 186
e 127 190
e 127 192
e 127 197
e 127 200
e 127 201
e 127 213
e 127 214
e 127 216
e 127 218
e 127 219
e 127 220
e 127 221
e 127 225
e 127 227
e 127 237
e 127 238
e 127 241
e 127 246
e 127 250
e 127 251
e 127 252
e 127 257
e 127 260
e 127 261
e 127 268
e 127 277
e 127 278
e 127 279
e 127 286
e 127 289
e 127 298
e 127 299
e 127 301
e 127 302
e 127 303
e 127 305
e 127 313
e 127 314
e 127 316
e 127 317
e 127 324
e 127 326
e 127 332
e 127 335
e 127 337
e 127 338
e 127 345
e 127 346
e 127 348
e 127 351
e 127 353
e 127 357
e 127 358
e 127 366
e 127 370
e 127 371
e 127 372
e 127 373
e 127 374
e 127 375
e 127 376
e 127 378
e 127 379
e 127 381
e 127 382
e 127 384
e 127 387
e 127 388
e 127 404
e 127 412
e 127 417
e 127 418
e 127 419
e 127 420
e 127 423
e 127 429
e 127 434
e 127 435
e 127 437
e 127 445
e 127 452
e 127 455
e 127 457
e 127 458
e 127 459
e 127 461
e 127 462
e 127 476
e 127 478
e 127 480
e 127 487
e 127 492
e 127 498
e 128 133
e 128 134
e 128 136
e 128 139
e 128 141
e 128 143
e 128 146
e 128 147
e 128 148
e 128 149
e 128 154
e 128 155
e 128 160
e 128 164
e 128 166
e 128 168
e 128 172
e 128 177
e 128 180
e 128 181
e 128 185
e 128 187
e 128 194
e 128 195
e 128 201
e 128 204
e 128 207
e 128 213
e 128 215
e 128 217
e 128 223
e 128 226
e 128 229
e 128 232
e 128 233
e 128 241
e 128 245
e 128 246
e 128 249
e 128 250
e 128 257
e 128 263
e 128 265
e 128 270
e 128 271
e 128 278
e 128 283
e 128 287
e 128 290
e 128 297
e 128 298
e 128 303
e 128 305
e 128 307
e 128 317
e 128 319
e 128 321
e 128 322
e 128 332
e 128 334
e 128 336
e 128 340
e 128 345
e 128 352
e 128 353
e 128 362
e 128 364
e 128 365
e 128 366
e 128 369
e 128 373
e 128 375
e 128 376
e 128 379
e 128 384
e 128 386
e 128 389
e 128 393
e 128 398
e 128 400
e 128 406
e 128 407
e 128 408
e 128 410
e 128 411
e 128 412
e 128 415
e 128 417
e 128 424
e 128 427
e 128 434
e 128 435
e 128 437
e 128 438
e 128 439
e 128 446
e 128 448
e 128 452
e 128 454
e 128 457
e 128 459
e 128 464
e 128 467
e 128 468
e 128 475
e 128 476
e 128 479
e 128 486
e 128 493
e 128 496
e 128 497
e 128 500
e 129 135
e 129 141
e 129 148
e 129 149
e 129 151
e 129 160
e 129 161
e 129 164
e 129 166
e 129 173
e 129 176
e 129 178
e 129 180
e 129 181
e 129 184
e 129 188
e 129 200
e 129 206
e 129 209
e 129 211
e 129 212
e 129 218
e 129 220
e 129 222
e 129 224
e 129 225
e 129 228
e 129 230
e 129 231
e 129 232
e 129 234
e 129 235
e 129 239
e 129 241
e 129 248
e 129 254
e 129 258
e 129 260
e 129 264
e 129 274
e 129 275
e 129 278
e 129 283
e 129 291
e 129 295
e 129 296
e 129 297
e 129 300
e 129 302
e 129 305
e 129 306
e 129 308
e 129 309
e 129 311
e 129 314
e 129 326
e 129 330
e 129 341
e 129 342
e 129 343
e 129 350
e 129 353
e 129 354
e 129 358
e 129 360
e 129 375
e 129 376
e 129 389
e 129 391
e 129 395
e 129 399
e 129 401
e 129 402
e 129 409
e 129 418
e 129 419
e 129 421
e 129 425
e 129 428
e 129 430
e 129 442
e 129 443
e 129 464
e 129 470
e 129 475
e 129 479
e 129 480
e 129 484
e 129 485
e 129 486
e 129 493
e 129 494
e 129 495
e 129 496
e 129 498
e 130 132
e 130 134
e 130 139
e 130 146
e 130 150
e 130 154
e 130 158
e 130 160
e 130 162
e 130 169
e 130 178
e 130 180
e 130 185
e 130 187
e 130 188
e 130 192
e 130 194
e 130 197
e 130 201
e 130 202
e 130 204
e 130 205
e 130 208
e 130 210
e 130 213
e 130 219
e 130 222
e 130 225
e 130 227
e 130 233
e 130 237
e 130 239
e 130 243
e 130 246
e 130 252
e 130 254
e 130 255
e 130 257
e 130 268
e 130 269
e 130 279
e 130 281
e 130 282
e 130 290
e 130 293
e 130 295
e 130 304
e 130 305
e 130 309
e 130 310
e 130 311
e 130 313
e 130 315
e 130 319
e 130 320
e 130 324
e 130 326
e 130 329
e 130 332
e 130 334
e 130 342
e 130 347
e 130 350
e 130 356
e 130 357
e 130 360
e 130 364
e 130 365
e 130 366
e 130 367
e 130 372
e 130 373
e 130 376
e 130 380
e 130 382
e 130 390
e 130 391
e 130 393
e 130 396
e 130 398
e 130 399
e 130 408
e 130 417
e 130 418
e 130 420
e 130 422
e 130 423
e 130 426
e 130 434
e 130 439
e 130 442
e 130 444
e 130 446
e 130 447
e 130 449
e 130 450
e 130 451
e 130 453
e 130 455
e 130 457
e 130 470
e 130 471
e 130 472
e 130 473
e 130 474
e 130 476
e 130 477
e 130 481
e 130 489
e 130 490
e 130 491
e 130 492
e 130 493
e 130 494
e 131 137
e 131 140
e 131 141
e 131 143
e 131 151
e 131 153
e 131 155
e 131 159
e 131 161
e 131 164
e 131 171
e 131 176
e 131 179
e 131 183
e 131 185
e 131 187
e 131 188
e 131 189
e 131 196
e 131 198
e 131 206
e 131 207
e 131 208
e 131 209
e 131 216
e 131 217
e 131 220
e 131 230
e 131 236
e 131 237
e 131 238
e 131 239
e 131 240
e 131 244
e 131 248
e 131 256
e 131 258
e 131 266
e 131 276
e 131 278
e 131 279
e 131 280
e 131 282
e 131 284
e 131 286
e 131 287
e 131 290
e 131 299
e 131 311
e 131 316
e 131 317
e 131 318
e 131 319
e 131 320
e 131 328
e 131 329
e 131 330
e 131 333
e 131 334
e 131 335
e 131 339
e 131 340
e 131 343
e 131 344
e 131 353
e 131 354
e 131 357
e 131 360
e 131 364
e 131 367
e 131 370
e 131 371
e 131 377
e 131 380
e 131 384
e 131 385
e 131 391
e 131 393
e 131 398
e 131 401
e 131 409
e 131 410
e 131 418
e 131 420
e 131 424
e 131 425
e 131 434
e 131 435
e 131 439
e 131 452
e 131 456
e 131 459
e 131 465
e 131 466
e 131 471
e 131 476
e 131 478
e 131 482
e 131 488
e 131 494
e 131 500
e 132 133
e 132 136
e 132 137
e 132 140
e 132 141
e 132 147
e 132 150
e 132 153
e 132 163
e 132 164
e 132 170
e 132 179
e 132 180
e 132 182
e 132 194
e 132 200
e 132 202
e 132 218
e 132 223
e 132 225
e 132 226
e 132 227
e 132 232
e 132 233
e 132 242
e 132 243
e 132 247
e 132 249
e 132 250
e 132 252
e 132 253
e 132 255
e 132 258
e 132 260
e 132 264
e 132 274
e 132 279
e 132 280
e 132 281
e 132 283
e 132 285
e 132 287
e 132 290
e 132 292
e 132 293
e 132 294
e 132 298
e 132 300
e 132 305
e 132 309
e 132 318
e 132 320
e 132 325
e 132 327
e 132 328
e 132 330
e 132 331
e 132 343
e 132 344
e 132 349
e 132 358
e 132 362
e 132 368
e 132 372
e 132 373
e 132 374
e 132 376
e 132 380
e 132 388
e 132 389
e 132 393
e 132 395
e 132 397
e 132 399
e 132 400
e 132 403
e 132 404
e 132 410
e 132 411
e 132 413
e 132 416
e 132 417
e 132 423
e 132 426
e 132 434
e 132 436
e 132 440
e 132 446
e 132 453
e 132 457
e 132 458
e 132 459
e 132 465
e 132 472
e 132 474
e 132 483
e 132 486
e 132 493
e 132 495
e 132 496
e 132 498
e 133 137
e 133 140
e 133 146
e 133 149
e 133 156
e 133 158
e 133 164
e 133 165
e 133 169
e 133 171
e 133 175
e 133 180
e 133 183
e 133 187
e 133 197
e 133 207
e 133 212
e 133 214
e 133 215
e 133 222
e 133 223
e 133 233
e 133 236
e 133 237
e 133 240
e 133 243
e 133 247
e 133 249
e 133 250
e 133 253
e 133 254
e 133 255
e 133 256
e 133 258
e 133 260
e 133 271
e 133 272
e 133 279
e 133 282
e 133 287
e 133 292
e 133 299
e 133 303
e 133 304
e 133 306
e 133 311
e 133 317
e 133 321
e 133 322
e 133 323
e 133 324
e 133 325
e 133 327
e 133 328
e 133 330
e 133 333
e 133 334
e 133 337
e 133 338
e 133 339
e 133 344
e 133 347
e 133 358
e 133 359
e 133 362
e 133 364
e 133 366
e 133 368
e 133 369
e 133 370
e 133 376
e 133 382
e 133 387
e 133 389
e 133 391
e 133 395
e 133 398
e 133 402
e 133 404
e 133 412
e 133 413
e 133 415
e 133 419
e 133 429
e 133 431
e 133 433
e 133 435
e 133 440
e 133 442
e 133 443
e 133 445
e 133 446
e 133 447
e 133 449
e 133 452
e 133 453
e 133 454
e 133 460
e 133 463
e 133 465
e 133 467
e 133 476
e 133 479
e 133 484
e 133 487
e 133 489
e 133 491
e 133 492
e 133 494
e 133 496
e 133 497
e 134 137
e 134 138
e 134 141
e 134 145
e 134 149
e 134 155
e 134 157
e 134 158
e 134 159
e 134 160
e 134 164
e 134 165
e 134 171
e 134 174
e 134 175
e 134 180
e 134 185
e 134 189
e 134 192
e 134 195
e 134 198
e 134 200
e 134 201
e 134 205
e 134 209
e 134 210
e 134 211
e 134 212
e 134 214
e 134 220
e 134 221
e 134 223
e 134 224
e 134 226
e 134 229
e 134 236
e 134 241
e 134 243
e 134 245
e 134 246
e 134 249
e 134 251
e 134 252
e 134 255
e 134 259
e 134 261
e 134 262
e 134 266
e 134 268
e 134 274
e 134 275
e 134 278
e 134 281
e 134 284
e 134 285
e 134 301
e 134 302
e 134 305
e 134 308
e 134 309
e 134 310
e 134 311
e 134 313
e 134 317
e 134 319
e 134 323
e 134 325
e 134 327
e 134 329
e 134 330
e 134 331
e 134 345
e 134 348
e 134 350
e 134 354
e 134 358
e 134 359
e 134 360
e 134 361
e 134 364
e 134 367
e 134 368
e 134 372
e 134 380
e 134 381
e 134 382
e 134 383
e 134 384
e 134 387
e 134 388
e 134 389
e 134 390
e 134 392
e 134 395
e 134 400
e 134 403
e 134 406
e 134 411
e 134 412
e 134 415
e 134 416
e 134 418
e 134 420
e 134 428
e 134 435
e 134 440
e 134 444
e 134 446
e 134 452
e 134 453
e 134 454
e 134 458
e 134 464
e 134 474
e 134 475
e 134 479
e 134 481
e 134 483
e 134 486
e 134 489
e 134 490
e 134 491
e 134 495
e 134 496
e 134 498
e 135 138
e 135 141
e 135 142
e 135 144
e 135 145
e 135 147
e 135 149
e 135 152
e 135 153
e 135 156
e 135 160
e 135 164
e 135 166
e 135 168
e 135 169
e 135 174
e 135 175
e 135 176
e 135 179
e 135 180
e 135 185
e 135 202
e 135 204
e 135 210
e 135 216
e 135 218
e 135 226
e 135 231
e 135 243
e 135 244
e 135 245
e 135 247
e 135 248
e 135 250
e 135 251
e 135 253
e 135 257
e 135 259
e 135 269
e 135 272
e 135 277
e 135 282
e 135 287
e 135 290
e 135 292
e 135 294
e 135 295
e 135 297
e 135 298
e 135 299
e 135 300
e 135 304
e 135 307
e 135 319
e 135 320
e 135 325
e 135 334
e 135 336
e 135 338
e 135 340
e 135 343
e 135 349
e 135 350
e 135 353
e 135 356
e 135 366
e 135 368
e 135 369
e 135 371
e 135 376
e 135 377
e 135 382
e 135 386
e 135 389
e 135 392
e 135 397
e 135 402
e 135 407
e 135 413
e 135 415
e 135 418
e 135 420
e 135 423
e 135 424
e 135 427
e 135 430
e 135 434
e 135 436
e 135 438
e 135 440
e 135 446
e 135 447
e 135 449
e 135 451
e 135 462
e 135 463
e 135 464
e 135 465
e 135 466
e 135 467
e 135 470
e 135 472
e 135 474
e 135 475
e 135 477
e 135 479
e 135 480
e 135 481
e 135 487
e 135 488
e 135 489
e 135 492
e 135 493
e 136 142
e 136 143
e 136 144
e 136 146
e 136 154
e 136 157
e 136 165
e 136 167
e 136 168
e 136 174
e 136 180
e 136 182
e 136 183
e 136 185
e 136 192
e 136 193
e 136 200
e 136 201
e 136 205
e 136 206
e 136 211
e 136 214
e 136 215
e 136 216
e 136 222
e 136 226
e 136 233
e 136 240
e 136 243
e 136 249
e 136 253
e 136 254
e 136 258
e 136 260
e 136 264
e 136 273
e 136 276
e 136 283
e 136 285
e 136 293
e 136 295
e 136 299
e 136 300
e 136 305
e 136 307
e 136 312
e 136 313
e 136 320
e 136 322
e 136 325
e 136 330
e 136 337
e 136 340
e 136 343
e 136 345
e 136 353
e 136 360
e 136 362
e 136 364
e 136 366
e 136 367
e 136 368
e 136 371
e 136 377
e 136 379
e 136 384
e 136 398
e 136 399
e 136 404
e 136 405
e 136 406
e 136 407
e 136 409
e 136 420
e 136 423
e 136 427
e 136 431
e 136 434
e 136 436
e 136 439
e 136 446
e 136 447
e 136 455
e 136 458
e 136 460
e 136 461
e 136 462
e 136 465
e 136 466
e 136 468
e 136 470
e 136 474
e 136 475
e 136 483
e 136 484
e 136 486
e 136 487
e 136 495
e 136 498
e 136 499
e 137 138
e 137 139
e 137 140
e 137 148
e 137 149
e 137 151
e 137 152
e 137 153
e 137 158
e 137 162
e 137 163
e 137 166
e 137 167
e 137 171
e 137 178
e 137 181
e 137 182
e 137 187
e 137 197
e 137 202
e 137 205
e 137 206
e 137 212
e 137 220
e 137 222
e 137 223
e 137 226
e 137 227
e 137 228
e 137 233
e 137 236
e 137 239
e 137 241
e 137 245
e 137 254
e 137 262
e 137 264
e 137 266
e 137 282
e 137 284
e 137 285
e 137 286
e 137 292
e 137 293
e 137 295
e 137 300
e 137 302
e 137 306
e 137 307
e 137 308
e 137 309
e 137 310
e 137 312
e 137 314
e 137 316
e 137 317
e 137 323
e 137 325
e 137 328
e 137 330
e 137 331
e 137 332
e 137 334
e 137 336
e 137 337
e 137 338
e 137 340
e 137 342
e 137 346
e 137 348
e 137 349
e 137 354
e 137 359
e 137 362
e 137 368
e 137 369
e 137 372
e 137 385
e 137 388
e 137 389
e 137 393
e 137 401
e 137 406
e 137 407
e 137 414
e 137 415
e 137 416
e 137 417
e 137 419
e 137 424
e 137 426
e 137 429
e 137 432
e 137 433
e 137 435
e 137 438
e 137 458
e 137 460
e 137 463
e 137 464
e 137 467
e 137 475
e 137 478
e 137 479
e 137 480
e 137 488
e 137 489
e 137 490
e 137 491
e 137 492
e 137 493
e 137 496
e 137 497
e 137 500
e 138 139
e 138 148
e 138 149
e 138 153
e 138 155
e 138 158
e 138 161
e 138 163
e 138 165
e 138 168
e 138 170
e 138 171
e 138 172
e 138 176
e 138 182
e 138 185
e 138 193
e 138 194
e 138 206
e 138 207
e 138 214
e 138 219
e 138 222
e 138 226
e 138 231
e 138 233
e 138 235
e 138 236
e 138 239
e 138 244
e 138 248
e 138 255
e 138 260
e 138 261
e 138 269
e 138 276
e 138 277
e 138 279
e 138 282
e 138 284
e 138 285
e 138 286
e 138 288
e 138 290
e 138 291
e 138 292
e 138 296
e 138 299
e 138 302
e 138 308
e 138 309
e 138 310
e 138 314
e 138 315
e 138 317
e 138 319
e 138 321
e 138 323
e 138 328
e 138 330
e 138 331
e 138 332
e 138 334
e 138 335
e 138 337
e 138 338
e 138 339
e 138 343
e 138 347
e 138 348
e 138 352
e 138 354
e 138 362
e 138 365
e 138 376
e 138 379
e 138 383
e 138 390
e 138 392
e 138 395
e 138 396
e 138 397
e 138 401
e 138 406
e 138 408
e 138 409
e 138 410
e 138 434
e 138 435
e 138 437
e 138 440
e 138 441
e 138 444
e 138 445
e 138 446
e 138 451
e 138 453
e 138 459
e 138 462
e 138 463
e 138 468
e 138 471
e 138 473
e 138 477
e 138 479
e 138 488
e 138 491
e 138 494
e 138 496
e 138 498
e 139 141
e 139 142
e 139 151
e 139 153
e 139 154
e 139 155
e 139 160
e 139 161
e 139 163
e 139 166
e 139 169
e 139 170
e 139 171
e 139 172
e 139 177
e 139 181
e 139 183
e 139 188
e 139 194
e 139 195
e 139 196
e 139 199
e 139 205
e 139 207
e 139 209
e 139 211
e 139 212
e 139 214
e 139 215
e 139 216
e 139 219
e 139 220
e 139 224
e 139 225
e 139 228
e 139 229
e 139 234
e 139 236
e 139 239
e 139 240
e 139 247
e 139 250
e 139 251
e 139 253
e 139 261
e 139 264
e 139 267
e 139 269
e 139 272
e 139 274
e 139 280
e 139 281
e 139 284
e 139 285
e 139 286
e 139 291
e 139 296
e 139 301
e 139 302
e 139 303
e 139 304
e 139 309
e 139 310
e 139 312
e 139 325
e 139 326
e 139 328
e 139 337
e 139 341
e 139 345
e 139 349
e 139 351
e 139 359
e 139 369
e 139 374
e 139 381
e 139 384
e 139 387
e 139 388
e 139 400
e 139 402
e 139 404
e 139 405
e 139 407
e 139 409
e 139 410
e 139 415
e 139 416
e 139 418
e 139 420
e 139 424
e 139 425
e 139 431
e 139 433
e 139 435
e 139 443
e 139 444
e 139 452
e 139 453
e 139 467
e 139 470
e 139 471
e 139 477
e 139 482
e 139 483
e 139 484
e 139 485
e 139 488
e 139 489
e 139 492
e 139 493
e 139 494
e 139 495
e 139 496
e 139 497
e 139 498
e 140 144
e 140 145
e 140 152
e 140 164
e 140 166
e 140 167
e 140 170
e 140 177
e 140 181
e 140 182
e 140 188
e 140 189
e 140 190
e 140 191
e 140 193
e 140 194
e 140 199
e 140 200
e 140 206
e 140 208
e 140 209
e 140 210
e 140 215
e 140 223
e 140 228
e 140 230
e 140 235
e 140 240
e 140 241
e 140 244
e 140 252
e 140 253
e 140 261
e 140 264
e 140 266
e 140 276
e 140 278
e 140 280
e 140 281
e 140 283
e 140 286
e 140 291
e 140 293
e 140 297
e 140 298
e 140 301
e 140 304
e 140 305
e 140 306
e 140 310
e 140 311
e 140 313
e 140 322
e 140 324
e 140 326
e 140 330
e 140 331
e 140 333
e 140 342
e 140 343
e 140 349
e 140 355
e 140 357
e 140 358
e 140 359
e 140 360
e 140 362
e 140 366
e 140 367
e 140 368
e 140 370
e 140 372
e 140 373
e 140 374
e 140 380
e 140 389
e 140 394
e 140 409
e 140 412
e 140 415
e 140 418
e 140 419
e 140 421
e 140 422
e 140 424
e 140 425
e 140 426
e 140 428
e 140 431
e 140 432
e 140 434
e 140 435
e 140 437
e 140 438
e 140 440
e 140 444
e 140 451
e 140 453
e 140 456
e 140 458
e 140 459
e 140 461
e 140 468
e 140 477
e 140 481
e 140 482
e 140 483
e 140 485
e 140 491
e 140 493
e 141 152
e 141 159
e 141 165
e 141 166
e 141 168
e 141 173
e 141 174
e 141 175
e 141 178
e 141 181
e 141 188
e 141 189
e 141 194
e 141 198
e 141 204
e 141 206
e 141 208
e 141 216
e 141 218
e 141 221
e 141 228
e 141 230
e 141 231
e 141 232
e 141 233
e 141 235
e 141 238
e 141 240
e 141 244
e 141 245
e 141 248
e 141 256
e 141 262
e 141 263
e 141 265
e 141 270
e 141 274
e 141 276
e 141 277
e 141 278
e 141 281
e 141 286
e 141 287
e 141 288
e 141 294
e 141 295
e 141 303
e 141 307
e 141 309
e 141 311
e 141 312
e 141 315
e 141 320
e 141 322
e 141 325
e 141 329
e 141 341
e 141 346
e 141 347
e 141 348
e 141 353
e 141 357
e 141 365
e 141 366
e 141 369
e 141 371
e 141 376
e 141 377
e 141 390
e 141 391
e 141 393
e 141 396
e 141 398
e 141 399
e 141 402
e 141 403
e 141 407
e 141 411
e 141 416
e 141 423
e 141 425
e 141 429
e 141 431
e 141 432
e 141 433
e 141 434
e 141 436
e 141 438
e 141 439
e 141 440
e 141 442
e 141 443
e 141 448
e 141 450
e 141 453
e 141 454
e 141 459
e 141 462
e 141 465
e 141 470
e 141 473
e 141 474
e 141 475
e 141 479
e 141 488
e 141 493
e 141 497
e 141 498
e 141 500
e 142 150
e 142 163
e 142 164
e 142 166
e 142 168
e 142 174
e 142 176
e 142 177
e 142 185
e 142 186
e 142 189
e 142 203
e 142 206
e 142 210
e 142 211
e 142 217
e 142 220
e 142 223
e 142 225
e 142 227
e 142 231
e 142 232
e 142 234
e 142 237
e 142 238
e 142 243
e 142 244
e 142 245
e 142 250
e 142 266
e 142 267
e 142 275
e 142 277
e 142 282
e 142 286
e 142 287
e 142 297
e 142 305
e 142 306
e 142 311
e 142 312
e 142 314
e 142 315
e 142 316
e 142 318
e 142 324
e 142 325
e 142 326
e 142 327
e 142 328
e 142 331
e 142 332
e 142 338
e 142 340
e 142 343
e 142 344
e 142 350
e 142 351
e 142 354
e 142 362
e 142 363
e 142 364
e 142 374
e 142 385
e 142 388
e 142 394
e 142 405
e 142 406
e 142 408
e 142 409
e 142 411
e 142 412
e 142 413
e 142 417
e 142 418
e 142 419
e 142 422
e 142 423
e 142 424
e 142 426
e 142 432
e 142 433
e 142 434
e 142 435
e 142 436
e 142 437
e 142 438
e 142 443
e 142 452
e 142 454
e 142 456
e 142 464
e 142 469
e 142 477
e 142 481
e 142 489
e 142 490
e 142 497
e 143 144
e 143 154
e 143 156
e 143 159
e 143 160
e 143 161
e 143 164
e 143 165
e 143 166
e 143 167
e 143 170
e 143 171
e 143 179
e 143 181
e 143 186
e 143 187
e 143 188
e 143 193
e 143 199
e 143 208
e 143 210
e 143 212
e 143 213
e 143 215
e 143 219
e 143 220
e 143 224
e 143 228
e 143 229
e 143 232
e 143 236
e 143 242
e 143 249
e 143 250
e 143 252
e 143 254
e 143 271
e 143 273
e 143 290
e 143 292
e 143 304
e 143 308
e 143 313
e 143 314
e 143 317
e 143 318
e 143 322
e 143 327
e 143 332
e 143 334
e 143 339
e 143 346
e 143 347
e 143 353
e 143 370
e 143 373
e 143 375
e 143 377
e 143 379
e 143 402
e 143 404
e 143 406
e 143 413
e 143 416
e 143 419
e 143 421
e 143 426
e 143 427
e 143 439
e 143 445
e 143 446
e 143 449
e 143 451
e 143 452
e 143 458
e 143 459
e 143 463
e 143 473
e 143 478
e 143 479
e 143 484
e 143 488
e 143 493
e 143 497
e 143 500
e 144 146
e 144 157
e 144 159
e 144 165
e 144 167
e 144 171
e 144 173
e 144 174
e 144 175
e 144 180
e 144 181
e 144 183
e 144 186
e 144 190
e 144 194
e 144 198
e 144 199
e 144 200
e 144 204
e 144 206
e 144 208
e 144 211
e 144 214
e 144 216
e 144 218
e 144 220
e 144 223
e 144 226
e 144 229
e 144 231
e 144 233
e 144 234
e 144 237
e 144 238
e 144 243
e 144 244
e 144 245
e 144 246
e 144 248
e 144 249
e 144 265
e 144 267
e 144 268
e 144 270
e 144 271
e 144 278
e 144 279
e 144 281
e 144 283
e 144 284
e 144 285
e 144 286
e 144 290
e 144 293
e 144 294
e 144 297
e 144 299
e 144 303
e 144 308
e 144 309
e 144 311
e 144 313
e 144 314
e 144 315
e 144 319
e 144 326
e 144 327
e 144 335
e 144 336
e 144 338
e 144 341
e 144 342
e 144 348
e 144 350
e 144 352
e 144 355
e 144 357
e 144 358
e 144 363
e 144 365
e 144 368
e 144 369
e 144 371
e 144 375
e 144 380
e 144 381
e 144 383
e 144 387
e 144 390
e 144 391
e 144 392
e 144 393
e 144 394
e 144 396
e 144 397
e 144 400
e 144 401
e 144 403
e 144 407
e 144 414
e 144 415
e 144 420
e 144 426
e 144 427
e 144 430
e 144 432
e 144 441
e 144 442
e 144 453
e 144 454
e 144 456
e 144 457
e 144 462
e 144 463
e 144 465
e 144 468
e 144 471
e 144 475
e 144 476
e 144 477
e 144 478
e 144 479
e 144 483
e 144 495
e 144 497
e 144 498
e 145 147
e 145 154
e 145 155
e 145 156
e 145 157
e 145 158
e 145 160
e 145 162
e 145 166
e 145 175
e 145 176
e 145 177
e 145 178
e 145 183
e 145 187
e 145 188
e 145 190
e 145 194
e 145 197
e 145 198
e 145 202
e 145 204
e 145 205
e 145 213
e 145 220
e 145 222
e 145 224
e 145 226
e 145 228
e 145 231
e 145 232
e 145 235
e 145 236
e 145 237
e 145 241
e 145 247
e 145 249
e 145 252
e 145 253
e 145 255
e 145 257
e 145 258
e 145 259
e 145 260
e 145 261
e 145 263
e 145 265
e 145 267
e 145 271
e 145 275
e 145 277
e 145 280
e 145 283
e 145 285
e 145 293
e 145 301
e 145 302
e 145 307
e 145 308
e 145 310
e 145 312
e 145 313
e 145 326
e 145 328
e 145 333
e 145 334
e 145 335
e 145 337
e 145 342
e 145 344
e 145 346
e 145 349
e 145 350
e 145 351
e 145 353
e 145 355
e 145 356
e 145 358
e 145 361
e 145 362
e 145 363
e 145 364
e 145 365
e 145 371
e 145 376
e 145 379
e 145 381
e 145 382
e 145 389
e 145 391
e 145 394
e 145 396
e 145 398
e 145 401
e 145 403
e 145 414
e 145 417
e 145 426
e 145 428
e 145 436
e 145 438
e 145 443
e 145 446
e 145 449
e 145 453
e 145 455
e 145 458
e 145 463
e 145 465
e 145 467
e 145 468
e 145 471
e 145 479
e 145 482
e 145 483
e 145 486
e 145 488
e 145 489
e 145 491
e 145 492
e 145 493
e 145 496
e 145 498
e 145 500
e 146 150
e 146 151
e 146 154
e 146 155
e 146 164
e 146 169
e 146 172
e 146 175
e 146 177
e 146 180
e 146 183
e 146 189
e 146 190
e 146 194
e 146 196
e 146 198
e 146 203
e 146 205
e 146 207
e 146 210
e 146 211
e 146 215
e 146 216
e 146 218
e 146 222
e 146 225
e 146 227
e 146 228
e 146 229
e 146 230
e 146 235
e 146 236
e 146 238
e 146 241
e 146 242
e 146 247
e 146 248
e 146 251
e 146 254
e 146 255
e 146 259
e 146 270
e 146 271
e 146 275
e 146 276
e 146 281
e 146 286
e 146 290
e 146 291
e 146 294
e 146 295
e 146 296
e 146 297
e 146 314
e 146 315
e 146 321
e 146 322
e 146 324
e 146 331
e 146 343
e 146 356
e 146 361
e 146 363
e 146 366
e 146 368
e 146 379
e 146 383
e 146 384
e 146 387
e 146 392
e 146 395
e 146 398
e 146 406
e 146 407
e 146 409
e 146 411
e 146 413
e 146 416
e 146 420
e 146 425
e 146 433
e 146 438
e 146 441
e 146 442
e 146 456
e 146 461
e 146 462
e 146 464
e 146 467
e 146 471
e 146 475
e 146 477
e 146 478
e 146 479
e 146 482
e 146 492
e 146 494
e 146 496
e 146 497
e 146 498
e 146 499
e 147 148
e 147 149
e 147 150
e 147 152
e 147 154
e 147 155
e 147 157
e 147 158
e 147 163
e 147 166
e 147 167
e 147 178
e 147 181
e 147 182
e 147 185
e 147 186
e 147 190
e 147 191
e 147 192
e 147 196
e 147 206
e 147 207
e 147 212
e 147 213
e 147 214
e 147 216
e 147 218
e 147 221
e 147 224
e 147 228
e 147 230
e 147 236
e 147 237
e 147 238
e 147 242
e 147 244
e 147 247
e 147 254
e 147 255
e 147 261
e 147 262
e 147 263
e 147 265
e 147 267
e 147 268
e 147 275
e 147 281
e 147 285
e 147 287
e 147 288
e 147 292
e 147 300
e 147 305
e 147 308
e 147 309
e 147 317
e 147 322
e 147 326
e 147 327
e 147 328
e 147 331
e 147 335
e 147 341
e 147 342
e 147 343
e 147 354
e 147 355
e 147 360
e 147 361
e 147 362
e 147 364
e 147 371
e 147 372
e 147 378
e 147 383
e 147 388
e 147 390
e 147 392
e 147 393
e 147 396
e 147 397
e 147 399
e 147 402
e 147 403
e 147 413
e 147 414
e 147 417
e 147 418
e 147 420
e 147 422
e 147 423
e 147 429
e 147 431
e 147 432
e 147 438
e 147 440
e 147 444
e 147 447
e 147 453
e 147 455
e 147 458
e 147 459
e 147 461
e 147 462
e 147 466
e 147 467
e 147 470
e 147 475
e 147 477
e 147 481
e 147 485
e 147 489
e 147 493
e 147 494
e 147 496
e 147 500
e 148 150
e 148 153
e 148 154
e 148 156
e 148 157
e 148 160
e 148 163
e 148 165
e 148 167
e 148 177
e 148 180
e 148 182
e 148 184
e 148 185
e 148 187
e 148 189
e 148 191
e 148 193
e 148 194
e 148 195
e 148 196
e 148 199
e 148 202
e 148 204
e 148 209
e 148 216
e 148 218
e 148 221
e 148 223
e 148 226
e 148 230
e 148 235
e 148 237
e 148 239
e 148 240
e 148 245
e 148 248
e 148 249
e 148 255
e 148 258
e 148 261
e 148 266
e 148 267
e 148 268
e 148 271
e 148 272
e 148 280
e 148 282
e 148 284
e 148 286
e 148 289
e 148 295
e 148 297
e 148 298
e 148 301
e 148 303
e 148 305
e 148 306
e 148 310
e 148 311
e 148 313
e 148 314
e 148 318
e 148 320
e 148 322
e 148 325
e 148 330
e 148 335
e 148 339
e 148 343
e 148 347
e 148 348
e 148 350
e 148 352
e 148 356
e 148 363
e 148 364
e 148 367
e 148 368
e 148 375
e 148 378
e 148 379
e 148 381
e 148 386
e 148 387
e 148 392
e 148 394
e 148 396
e 148 402
e 148 403
e 148 404
e 148 406
e 148 408
e 148 413
e 148 416
e 148 421
e 148 424
e 148 428
e 148 439
e 148 444
e 148 445
e 148 455
e 148 459
e 148 463
e 148 472
e 148 473
e 148 474
e 148 478
e 148 480
e 148 490
e 148 491
e 148 493
e 148 494
e 148 496
e 148 500
e 149 150
e 149 151
e 149 153
e 149 154
e 149 155
e 149 156
e 149 158
e 149 159
e 149 160
e 149 161
e 149 165
e 149 167
e 149 168
e 149 173
e 149 174
e 149 175
e 149 176
e 149 178
e 149 181
e 149 186
e 149 188
e 149 189
e 149 190
e 149 198
e 149 199
e 149 201
e 149 207
e 149 210
e 149 217
e 149 221
e 149 223
e 149 226
e 149 227
e 149 228
e 149 230
e 149 232
e 149 233
e 149 234
e 149 242
e 149 244
e 149 246
e 149 251
e 149 252
e 149 262
e 149 266
e 149 272
e 149 273
e 149 275
e 149 276
e 149 279
e 149 281
e 149 282
e 149 291
e 149 294
e 149 301
e 149 302
e 149 307
e 149 310
e 149 314
e 149 317
e 149 319
e 149 321
e 149 322
e 149 324
e 149 326
e 149 330
e 149 335
e 149 336
e 149 337
e 149 338
e 149 339
e 149 342
e 149 352
e 149 353
e 149 357
e 149 365
e 149 367
e 149 374
e 149 375
e 149 379
e 149 381
e 149 383
e 149 385
e 149 386
e 149 387
e 149 389
e 149 392
e 149 396
e 149 397
e 149 400
e 149 407
e 149 410
e 149 411
e 149 416
e 149 421
e 149 422
e 149 427
e 149 429
e 149 432
e 149 434
e 149 437
e 149 439
e 149 443
e 149 449
e 149 450
e 149 451
e 149 465
e 149 468
e 149 470
e 149 473
e 149 474
e 149 475
e 149 480
e 149 484
e 149 485
e 149 490
e 149 493
e 149 497
e 149 498
e 150 156
e 150 157
e 150 160
e 150 161
e 150 167
e 150 171
e 150 172
e 150 174
e 150 175
e 150 178
e 150 180
e 150 181
e 150 186
e 150 187
e 150 189
e 150 195
e 150 197
e 150 200
e 150 201
e 150 203
e 150 205
e 150 207
e 150 208
e 150 212
e 150 213
e 150 214
e 150 215
e 150 219
e 150 225
e 150 226
e 150 231
e 150 232
e 150 237
e 150 242
e 150 245
e 150 247
e 150 248
e 150 250
e 150 257
e 150 259
e 150 260
e 150 263
e 150 271
e 150 272
e 150 275
e 150 280
e 150 283
e 150 284
e 150 288
e 150 290
e 150 291
e 150 295
e 150 296
e 150 297
e 150 300
e 150 301
e 150 305
e 150 307
e 150 309
e 150 310
e 150 311
e 150 312
e 150 314
e 150 321
e 150 322
e 150 324
e 150 325
e 150 327
e 150 330
e 150 333
e 150 334
e 150 338
e 150 340
e 150 345
e 150 346
e 150 347
e 150 348
e 150 350
e 150 351
e 150 352
e 150 353
e 150 355
e 150 362
e 150 370
e 150 372
e 150 374
e 150 375
e 150 377
e 150 380
e 150 381
e 150 384
e 150 387
e 150 397
e 150 398
e 150 403
e 150 405
e 150 410
e 150 411
e 150 413
e 150 416
e 150 419
e 150 420
e 150 422
e 150 424
e 150 437
e 150 438
e 150 443
e 150 447
e 150 454
e 150 456
e 150 459
e 150 460
e 150 461
e 150 462
e 150 467
e 150 468
e 150 472
e 150 474
e 150 476
e 150 477
e 150 478
e 150 484
e 150 485
e 150 492
e 150 493
e 150 494
e 150 498
e 150 499
e 151 156
e 151 158
e 151 161
e 151 163
e 151 167
e 151 169
e 151 173
e 151 174
e 151 177
e 151 183
e 151 193
e 151 194
e 151 195
e 151 199
e 151 201
e 151 202
e 151 204
e 151 206
e 151 210
e 151 212
e 151 216
e 151 217
e 151 219
e 151 223
e 151 226
e 151 227
e 151 233
e 151 234
e 151 235
e 151 236
e 151 246
e 151 247
e 151 252
e 151 258
e 151 261
e 151 262
e 151 267
e 151 270
e 151 271
e 151 272
e 151 287
e 151 289
e 151 294
e 151 299
e 151 300
e 151 302
e 151 311
e 151 312
e 151 313
e 151 316
e 151 318
e 151 319
e 151 320
e 151 321
e 151 325
e 151 326
e 151 327
e 151 329
e 151 335
e 151 336
e 151 337
e 151 338
e 151 340
e 151 341
e 151 342
e 151 345
e 151 347
e 151 357
e 151 359
e 151 362
e 151 363
e 151 364
e 151 366
e 151 369
e 151 372
e 151 374
e 151 375
e 151 376
e 151 379
e 151 381
e 151 383
e 151 387
e 151 388
e 151 389
e 151 392
e 151 394
e 151 395
e 151 396
e 151 407
e 151 408
e 151 409
e 151 411
e 151 413
e 151 418
e 151 423
e 151 428
e 151 440
e 151 441
e 151 448
e 151 449
e 151 456
e 151 457
e 151 459
e 151 463
e 151 466
e 151 472
e 151 473
e 151 475
e 151 479
e 151 480
e 151 481
e 151 482
e 151 484
e 151 485
e 151 486
e 151 493
e 151 494
e 151 499
e 152 154
e 152 155
e 152 156
e 152 157
e 152 160
e 152 168
e 152 169
e 152 171
e 152 173
e 152 175
e 152 180
e 152 189
e 152 190
e 152 192
e 152 193
e 152 194
e 152 196
e 152 197
e 152 203
e 152 208
e 152 209
e 152 213
e 152 223
e 152 227
e 152 228
e 152 230
e 152 231
e 152 232
e 152 235
e 152 240
e 152 241
e 152 245
e 152 246
e 152 247
e 152 251
e 152 252
e 152 260
e 152 265
e 152 267
e 152 274
e 152 283
e 152 284
e 152 286
e 152 288
e 152 289
e 152 290
e 152 291
e 152 294
e 152 297
e 152 298
e 152 299
e 152 300
e 152 312
e 152 313
e 152 314
e 152 315
e 152 316
e 152 317
e 152 324
e 152 326
e 152 327
e 152 329
e 152 330
e 152 331
e 152 334
e 152 336
e 152 337
e 152 339
e 152 342
e 152 343
e 152 344
e 152 356
e 152 361
e 152 364
e 152 368
e 152 371
e 152 375
e 152 376
e 152 379
e 152 380
e 152 383
e 152 385
e 152 389
e 152 390
e 152 394
e 152 396
e 152 399
e 152 401
e 152 403
e 152 406
e 152 407
e 152 408
e 152 413
e 152 414
e 152 416
e 152 420
e 152 421
e 152 424
e 152 429
e 152 430
e 152 433
e 152 434
e 152 447
e 152 453
e 152 460
e 152 463
e 152 465
e 152 468
e 152 470
e 152 477
e 152 478
e 152 483
e 152 486
e 152 496
e 152 497
e 152 498
e 152 500
e 153 155
e 153 159
e 153 160
e 153 171
e 153 175
e 153 181
e 153 185
e 153 186
e 153 190
e 153 195
e 153 199
e 153 205
e 153 209
e 153 214
e 153 216
e 153 222
e 153 227
e 153 229
e 153 231
e 153 233
e 153 234
e 153 236
e 153 244
e 153 247
e 153 248
e 153 253
e 153 254
e 153 262
e 153 263
e 153 269
e 153 271
e 153 272
e 153 275
e 153 276
e 153 277
e 153 282
e 153 285
e 153 288
e 153 290
e 153 291
e 153 292
e 153 294
e 153 303
e 153 306
e 153 308
e 153 309
e 153 310
e 153 311
e 153 312
e 153 314
e 153 317
e 153 319
e 153 321
e 153 327
e 153 329
e 153 335
e 153 339
e 153 340
e 153 342
e 153 344
e 153 345
e 153 348
e 153 350
e 153 351
e 153 359
e 153 362
e 153 365
e 153 367
e 153 371
e 153 374
e 153 375
e 153 377
e 153 383
e 153 384
e 153 387
e 153 394
e 153 397
e 153 405
e 153 406
e 153 407
e 153 408
e 153 414
e 153 420
e 153 421
e 153 424
e 153 428
e 153 435
e 153 437
e 153 442
e 153 447
e 153 449
e 153 450
e 153 452
e 153 453
e 153 454
e 153 455
e 153 456
e 153 458
e 153 462
e 153 464
e 153 466
e 153 467
e 153 470
e 153 471
e 153 474
e 153 476
e 153 479
e 153 481
e 153 482
e 153 490
e 153 492
e 153 495
e 153 497
e 154 157
e 154 162
e 154 166
e 154 171
e 154 184
e 154 185
e 154 186
e 154 189
e 154 190
e 154 192
e 154 193
e 154 194
e 154 195
e 154 197
e 154 200
e 154 211
e 154 216
e 154 218
e 154 220
e 154 224
e 154 225
e 154 237
e 154 244
e 154 245
e 154 250
e 154 256
e 154 257
e 154 259
e 154 260
e 154 261
e 154 269
e 154 271
e 154 273
e 154 275
e 154 278
e 154 282
e 154 285
e 154 286
e 154 287
e 154 288
e 154 292
e 154 295
e 154 298
e 154 301
e 154 304
e 154 305
e 154 309
e 154 312
e 154 313
e 154 314
e 154 320
e 154 324
e 154 327
e 154 329
e 154 330
e 154 334
e 154 335
e 154 349
e 154 351
e 154 352
e 154 359
e 154 362
e 154 363
e 154 364
e 154 367
e 154 371
e 154 376
e 154 378
e 154 380
e 154 385
e 154 388
e 154 392
e 154 398
e 154 401
e 154 403
e 154 406
e 154 408
e 154 411
e 154 416
e 154 417
e 154 421
e 154 423
e 154 425
e 154 426
e 154 427
e 154 428
e 154 429
e 154 433
e 154 442
e 154 444
e 154 453
e 154 457
e 154 463
e 154 468
e 154 473
e 154 478
e 154 482
e 154 483
e 154 487
e 154 489
e 154 492
e 154 495
e 154 497
e 154 499
e 154 500
e 155 158
e 155 159
e 155 161
e 155 165
e 155 166
e 155 167
e 155 170
e 155 181
e 155 183
e 155 186
e 155 187
e 155 188
e 155 191
e 155 192
e 155 194
e 155 198
e 155 200
e 155 206
e 155 208
e 155 216
e 155 218
e 155 225
e 155 228
e 155 230
e 155 231
e 155 232
e 155 233
e 155 245
e 155 250
e 155 253
e 155 254
e 155 257
e 155 258
e 155 272
e 155 273
e 155 280
e 155 282
e 155 283
e 155 286
e 155 287
e 155 288
e 155 290
e 155 295
e 155 297
e 155 298
e 155 306
e 155 307
e 155 310
e 155 311
e 155 313
e 155 317
e 155 318
e 155 319
e 155 320
e 155 326
e 155 337
e 155 338
e 155 340
e 155 347
e 155 348
e 155 351
e 155 352
e 155 359
e 155 361
e 155 362
e 155 365
e 155 370
e 155 377
e 155 378
e 155 379
e 155 380
e 155 394
e 155 400
e 155 401
e 155 402
e 155 406
e 155 409
e 155 411
e 155 413
e 155 419
e 155 425
e 155 429
e 155 435
e 155 439
e 155 440
e 155 441
e 155 447
e 155 452
e 155 454
e 155 455
e 155 459
e 155 463
e 155 467
e 155 469
e 155 470
e 155 472
e 155 473
e 155 476
e 155 477
e 155 486
e 155 490
e 155 491
e 155 492
e 155 498
e 155 500
e 156 160
e 156 161
e 156 172
e 156 175
e 156 184
e 156 185
e 156 188
e 156 189
e 156 191
e 156 197
e 156 199
e 156 203
e 156 210
e 156 211
e 156 213
e 156 214
e 156 216
e 156 217
e 156 222
e 156 223
e 156 225
e 156 235
e 156 236
e 156 238
e 156 246
e 156 249
e 156 252
e 156 253
e 156 256
e 156 258
e 156 259
e 156 261
e 156 263
e 156 264
e 156 265
e 156 269
e 156 270
e 156 271
e 156 272
e 156 275
e 156 277
e 156 279
e 156 284
e 156 285
e 156 286
e 156 288
e 156 289
e 156 291
e 156 303
e 156 310
e 156 317
e 156 320
e 156 321
e 156 334
e 156 335
e 156 338
e 156 343
e 156 346
e 156 349
e 156 351
e 156 354
e 156 359
e 156 360
e 156 362
e 156 363
e 156 372
e 156 373
e 156 374
e 156 378
e 156 381
e 156 385
e 156 386
e 156 388
e 156 390
e 156 392
e 156 396
e 156 397
e 156 399
e 156 400
e 156 401
e 156 406
e 156 413
e 156 415
e 156 417
e 156 420
e 156 421
e 156 422
e 156 426
e 156 429
e 156 433
e 156 434
e 156 435
e 156 436
e 156 438
e 156 442
e 156 443
e 156 444
e 156 446
e 156 449
e 156 451
e 156 453
e 156 464
e 156 468
e 156 481
e 156 484
e 156 489
e 156 493
e 156 494
e 156 499
e 157 158
e 157 162
e 157 163
e 157 167
e 157 169
e 157 173
e 157 176
e 157 177
e 157 180
e 157 182
e 157 186
e 157 192
e 157 195
e 157 196
e 157 199
e 157 203
e 157 208
e 157 209
e 157 214
e 157 218
e 157 221
e 157 225
e 157 226
e 157 235
e 157 240
e 157 243
e 157 246
e 157 255
e 157 258
e 157 262
e 157 266
e 157 267
e 157 269
e 157 270
e 157 274
e 157 276
e 157 279
e 157 281
e 157 284
e 157 289
e 157 291
e 157 293
e 157 296
e 157 300
e 157 301
e 157 313
e 157 317
e 157 320
e 157 322
e 157 327
e 157 338
e 157 341
e 157 342
e 157 347
e 157 350
e 157 353
e 157 355
e 157 356
e 157 358
e 157 359
e 157 360
e 157 362
e 157 365
e 157 367
e 157 369
e 157 372
e 157 373
e 157 375
e 157 377
e 157 378
e 157 386
e 157 388
e 157 393
e 157 396
e 157 399
e 157 400
e 157 401
e 157 404
e 157 412
e 157 418
e 157 420
e 157 426
e 157 430
e 157 434
e 157 435
e 157 436
e 157 437
e 157 442
e 157 447
e 157 456
e 157 458
e 157 463
e 157 465
e 157 466
e 157 467
e 157 473
e 157 474
e 157 479
e 157 480
e 157 482
e 157 484
e 157 491
e 157 498
e 158 165
e 158 167
e 158 171
e 158 177
e 158 178
e 158 182
e 158 184
e 158 187
e 158 189
e 158 199
e 158 203
e 158 204
e 158 206
e 158 208
e 158 210
e 158 211
e 158 216
e 158 228
e 158 234
e 158 237
e 158 241
e 158 242
e 158 246
e 158 248
e 158 250
e 158 254
e 158 260
e 158 262
e 158 263
e 158 266
e 158 272
e 158 274
e 158 275
e 158 277
e 158 279
e 158 281
e 158 288
e 158 292
e 158 299
e 158 302
e 158 303
e 158 307
e 158 308
e 158 310
e 158 314
e 158 320
e 158 323
e 158 325
e 158 327
e 158 330
e 158 331
e 158 332
e 158 333
e 158 334
e 158 339
e 158 341
e 158 347
e 158 349
e 158 352
e 158 354
e 158 355
e 158 357
e 158 371
e 158 375
e 158 376
e 158 377
e 158 380
e 158 386
e 158 387
e 158 390
e 158 395
e 158 396
e 158 397
e 158 399
e 158 402
e 158 403
e 158 408
e 158 417
e 158 428
e 158 430
e 158 431
e 158 435
e 158 436
e 158 438
e 158 440
e 158 441
e 158 446
e 158 459
e 158 463
e 158 464
e 158 468
e 158 470
e 158 471
e 158 473
e 158 474
e 158 477
e 158 479
e 158 482
e 158 483
e 158 486
e 158 495
e 158 499
e 159 160
e 159 162
e 159 164
e 159 165
e 159 167
e 159 173
e 159 174
e 159 176
e 159 177
e 159 180
e 159 186
e 159 187
e 159 188
e 159 201
e 159 204
e 159 209
e 159 211
e 159 212
e 159 215
e 159 218
e 159 221
e 159 224
e 159 227
e 159 228
e 159 238
e 159 242
e 159 246
e 159 249
e 159 252
e 159 255
e 159 260
e 159 261
e 159 266
e 159 270
e 159 272
e 159 276
e 159 277
e 159 282
e 159 286
e 159 288
e 159 291
e 159 292
e 159 293
e 159 294
e 159 295
e 159 299
e 159 302
e 159 304
e 159 305
e 159 309
e 159 310
e 159 314
e 159 320
e 159 322
e 159 328
e 159 329
e 159 335
e 159 336
e 159 337
e 159 344
e 159 351
e 159 355
e 159 359
e 159 361
e 159 365
e 159 367
e 159 368
e 159 371
e 159 375
e 159 379
e 159 380
e 159 383
e 159 384
e 159 385
e 159 386
e 159 387
e 159 394
e 159 396
e 159 401
e 159 408
e 159 410
e 159 423
e 159 434
e 159 435
e 159 436
e 159 438
e 159 439
e 159 442
e 159 458
e 159 462
e 159 463
e 159 464
e 159 469
e 159 471
e 159 479
e 159 480
e 159 481
e 159 482
e 159 484
e 159 488
e 159 490
e 159 493
e 159 496
e 159 497
e 160 161
e 160 163
e 160 165
e 160 168
e 160 169
e 160 171
e 160 172
e 160 173
e 160 175
e 160 178
e 160 179
e 160 189
e 160 194
e 160 202
e 160 205
e 160 206
e 160 208
e 160 211
e 160 212
e 160 213
e 160 221
e 160 222
e 160 225
e 160 227
e 160 231
e 160 239
e 160 240
e 160 241
e 160 243
e 160 244
e 160 249
e 160 250
e 160 258
e 160 261
e 160 265
e 160 267
e 160 268
e 160 272
e 160 273
e 160 280
e 160 289
e 160 293
e 160 296
e 160 297
e 160 299
e 160 301
e 160 302
e 160 303
e 160 305
e 160 307
e 160 311
e 160 316
e 160 317
e 160 318
e 160 319
e 160 322
e 160 324
e 160 327
e 160 328
e 160 329
e 160 330
e 160 331
e 160 335
e 160 337
e 160 339
e 160 342
e 160 343
e 160 345
e 160 346
e 160 347
e 160 353
e 160 355
e 160 358
e 160 362
e 160 364
e 160 369
e 160 371
e 160 376
e 160 379
e 160 381
e 160 392
e 160 393
e 160 395
e 160 397
e 160 400
e 160 404
e 160 405
e 160 407
e 160 410
e 160 418
e 160 419
e 160 424
e 160 425
e 160 428
e 160 431
e 160 432
e 160 435
e 160 436
e 160 445
e 160 447
e 160 450
e 160 452
e 160 455
e 160 456
e 160 458
e 160 459
e 160 460
e 160 465
e 160 467
e 160 473
e 160 474
e 160 475
e 160 479
e 160 482
e 160 483
e 160 486
e 160 487
e 160 490
e 160 495
e 160 500
e 161 163
e 161 164
e 161 172
e 161 174
e 161 175
e 161 183
e 161 184
e 161 185
e 161 187
e 161 190
e 161 194
e 161 198
e 161 199
e 161 204
e 161 205
e 161 207
e 161 217
e 161 220
e 161 222
e 161 223
e 161 228
e 161 234
e 161 237
e 161 243
e 161 244
e 161 247
e 161 248
e 161 251
e 161 255
e 161 256
e 161 257
e 161 259
e 161 263
e 161 271
e 161 273
e 161 276
e 161 278
e 161 283
e 161 288
e 161 292
e 161 298
e 161 300
e 161 301
e 161 303
e 161 307
e 161 312
e 161 315
e 161 316
e 161 326
e 161 328
e 161 329
e 161 332
e 161 334
e 161 336
e 161 338
e 161 344
e 161 345
e 161 356
e 161 360
e 161 366
e 161 370
e 161 377
e 161 379
e 161 380
e 161 382
e 161 389
e 161 391
e 161 395
e 161 396
e 161 405
e 161 415
e 161 424
e 161 427
e 161 428
e 161 429
e 161 430
e 161 431
e 161 439
e 161 448
e 161 450
e 161 451
e 161 452
e 161 455
e 161 461
e 161 468
e 161 469
e 161 470
e 161 473
e 161 479
e 161 483
e 161 486
e 161 491
e 161 500
e 162 164
e 162 168
e 162 170
e 162 171
e 162 172
e 162 173
e 162 178
e 162 187
e 162 192
e 162 198
e 162 201
e 162 209
e 162 210
e 162 216
e 162 217
e 162 219
e 162 222
e 162 223
e 162 227
e 162 228
e 162 229
e 162 231
e 162 233
e 162 237
e 162 241
e 162 242
e 162 243
e 162 247
e 162 248
e 162 261
e 162 266
e 162 270
e 162 272
e 162 273
e 162 280
e 162 285
e 162 289
e 162 301
e 162 305
e 162 306
e 162 309
e 162 312
e 162 314
e 162 316
e 162 317
e 162 319
e 162 321
e 162 325
e 162 329
e 162 336
e 162 344
e 162 345
e 162 355
e 162 356
e 162 357
e 162 372
e 162 379
e 162 380
e 162 388
e 162 389
e 162 390
e 162 391
e 162 395
e 162 400
e 162 401
e 162 405
e 162 406
e 162 409
e 162 420
e 162 421
e 162 422
e 162 423
e 162 424
e 162 426
e 162 436
e 162 441
e 162 442
e 162 447
e 162 448
e 162 454
e 162 456
e 162 465
e 162 466
e 162 469
e 162 472
e 162 474
e 162 481
e 162 496
e 162 497
e 162 499
e 163 164
e 163 165
e 163 168
e 163 171
e 163 176
e 163 177
e 163 184
e 163 186
e 163 191
e 163 192
e 163 197
e 163 201
e 163 202
e 163 203
e 163 208
e 163 210
e 163 214
e 163 218
e 163 220
e 163 221
e 163 222
e 163 223
e 163 227
e 163 228
e 163 231
e 163 234
e 163 235
e 163 237
e 163 239
e 163 243
e 163 245
e 163 248
e 163 250
e 163 251
e 163 258
e 163 261
e 163 270
e 163 271
e 163 272
e 163 274
e 163 278
e 163 279
e 163 280
e 163 284
e 163 285
e 163 291
e 163 292
e 163 294
e 163 306
e 163 307
e 163 313
e 163 315
e 163 316
e 163 318
e 163 319
e 163 321
e 163 323
e 163 325
e 163 329
e 163 332
e 163 336
e 163 338
e 163 342
e 163 346
e 163 347
e 163 348
e 163 353
e 163 358
e 163 359
e 163 363
e 163 364
e 163 366
e 163 368
e 163 369
e 163 371
e 163 372
e 163 380
e 163 382
e 163 387
e 163 390
e 163 392
e 163 393
e 163 394
e 163 395
e 163 396
e 163 399
e 163 400
e 163 406
e 163 414
e 163 416
e 163 417
e 163 422
e 163 424
e 163 425
e 163 428
e 163 429
e 163 431
e 163 433
e 163 434
e 163 438
e 163 441
e 163 444
e 163 451
e 163 453
e 163 455
e 163 459
e 163 464
e 163 469
e 163 480
e 163 486
e 163 491
e 163 492
e 163 498
e 163 500
e 164 170
e 164 177
e 164 182
e 164 183
e 164 184
e 164 186
e 164 191
e 164 196
e 164 200
e 164 202
e 164 206
e 164 208
e 164 210
e 164 218
e 164 219
e 164 223
e 164 224
e 164 226
e 164 227
e 164 228
e 164 239
e 164 242
e 164 245
e 164 246
e 164 248
e 164 249
e 164 250
e 164 251
e 164 258
e 164 263
e 164 266
e 164 271
e 164 274
e 164 275
e 164 276
e 164 296
e 164 297
e 164 304
e 164 305
e 164 306
e 164 310
e 164 314
e 164 316
e 164 319
e 164 328
e 164 329
e 164 334
e 164 335
e 164 337
e 164 338
e 164 339
e 164 342
e 164 343
e 164 351
e 164 355
e 164 361
e 164 365
e 164 369
e 164 375
e 164 377
e 164 378
e 164 380
e 164 382
e 164 387
e 164 388
e 164 392
e 164 394
e 164 397
e 164 404
e 164 409
e 164 416
e 164 417
e 164 421
e 164 428
e 164 432
e 164 433
e 164 435
e 164 438
e 164 443
e 164 445
e 164 450
e 164 455
e 164 459
e 164 461
e 164 462
e 164 464
e 164 467
e 164 469
e 164 470
e 164 471
e 164 472
e 164 482
e 164 488
e 164 490
e 164 491
e 164 492
e 164 494
e 165 168
e 165 174
e 165 175
e 165 184
e 165 185
e 165 192
e 165 194
e 165 195
e 165 196
e 165 201
e 165 203
e 165 212
e 165 213
e 165 216
e 165 217
e 165 218
e 165 220
e 165 221
e 165 223
e 165 224
e 165 226
e 165 229
e 165 231
e 165 234
e 165 238
e 165 241
e 165 244
e 165 246
e 165 248
e 165 252
e 165 255
e 165 257
e 165 263
e 165 264
e 165 265
e 165 266
e 165 267
e 165 269
e 165 270
e 165 277
e 165 281
e 165 283
e 165 284
e 165 285
e 165 293
e 165 295
e 165 298
e 165 307
e 165 311
e 165 313
e 165 316
e 165 318
e 165 319
e 165 324
e 165 330
e 165 334
e 165 335
e 165 336
e 165 337
e 165 347
e 165 351
e 165 353
e 165 359
e 165 361
e 165 369
e 165 371
e 165 372
e 165 381
e 165 383
e 165 384
e 165 388
e 165 390
e 165 392
e 165 393
e 165 403
e 165 406
e 165 416
e 165 418
e 165 419
e 165 420
e 165 424
e 165 433
e 165 435
e 165 437
e 165 438
e 165 439
e 165 447
e 165 460
e 165 463
e 165 471
e 165 474
e 165 480
e 165 482
e 165 489
e 165 491
e 165 492
e 166 176
e 166 178
e 166 185
e 166 187
e 166 190
e 166 195
e 166 200
e 166 204
e 166 205
e 166 207
e 166 208
e 166 209
e 166 210
e 166 211
e 166 216
e 166 218
e 166 221
e 166 227
e 166 231
e 166 233
e 166 238
e 166 240
e 166 241
e 166 244
e 166 246
e 166 251
e 166 254
e 166 255
e 166 259
e 166 263
e 166 264
e 166 267
e 166 269
e 166 272
e 166 273
e 166 275
e 166 276
e 166 279
e 166 282
e 166 283
e 166 285
e 166 298
e 166 301
e 166 304
e 166 307
e 166 310
e 166 312
e 166 318
e 166 319
e 166 327
e 166 329
e 166 330
e 166 332
e 166 335
e 166 338
e 166 340
e 166 341
e 166 344
e 166 354
e 166 355
e 166 357
e 166 369
e 166 371
e 166 375
e 166 377
e 166 380
e 166 381
e 166 384
e 166 385
e 166 387
e 166 391
e 166 394
e 166 395
e 166 396
e 166 398
e 166 399
e 166 400
e 166 401
e 166 406
e 166 409
e 166 415
e 166 417
e 166 418
e 166 424
e 166 426
e 166 428
e 166 431
e 166 432
e 166 434
e 166 435
e 166 440
e 166 447
e 166 449
e 166 453
e 166 454
e 166 457
e 166 463
e 166 466
e 166 468
e 166 470
e 166 471
e 166 472
e 166 474
e 166 475
e 166 476
e 166 488
e 166 490
e 166 492
e 166 493
e 166 496
e 166 498
e 167 176
e 167 179
e 167 180
e 167 181
e 167 185
e 167 194
e 167 196
e 167 197
e 167 198
e 167 199
e 167 200
e 167 212
e 167 215
e 167 219
e 167 221
e 167 224
e 167 231
e 167 238
e 167 242
e 167 250
e 167 251
e 167 264
e 167 275
e 167 277
e 167 281
e 167 283
e 167 286
e 167 289
e 167 292
e 167 293
e 167 294
e 167 296
e 167 297
e 167 298
e 167 299
e 167 301
e 167 304
e 167 308
e 167 314
e 167 320
e 167 326
e 167 332
e 167 335
e 167 343
e 167 349
e 167 354
e 167 356
e 167 361
e 167 364
e 167 370
e 167 372
e 167 373
e 167 377
e 167 383
e 167 384
e 167 386
e 167 387
e 167 388
e 167 392
e 167 394
e 167 396
e 167 399
e 167 402
e 167 407
e 167 408
e 167 412
e 167 421
e 167 422
e 167 427
e 167 433
e 167 434
e 167 435
e 167 438
e 167 439
e 167 440
e 167 443
e 167 448
e 167 453
e 167 459
e 167 460
e 167 461
e 167 463
e 167 469
e 167 471
e 167 472
e 167 475
e 167 478
e 167 481
e 167 482
e 167 483
e 167 488
e 167 491
e 167 497
e 167 498
e 167 499
e 167 500
e 168 169
e 168 176
e 168 178
e 168 186
e 168 188
e 168 196
e 168 199
e 168 200
e 168 202
e 168 207
e 168 211
e 168 212
e 168 213
e 168 219
e 168 222
e 168 224
e 168 231
e 168 234
e 168 235
e 168 245
e 168 246
e 168 250
e 168 251
e 168 252
e 168 254
e 168 265
e 168 266
e 168 269
e 168 272
e 168 277
e 168 278
e 168 279
e 168 281
e 168 283
e 168 285
e 168 289
e 168 291
e 168 295
e 168 299
e 168 305
e 168 309
e 168 311
e 168 322
e 168 324
e 168 329
e 168 330
e 168 332
e 168 336
e 168 338
e 168 339
e 168 342
e 168 343
e 168 347
e 168 348
e 168 354
e 168 355
e 168 360
e 168 364
e 168 369
e 168 370
e 168 372
e 168 378
e 168 381
e 168 382
e 168 390
e 168 393
e 168 396
e 168 400
e 168 403
e 168 413
e 168 415
e 168 416
e 168 417
e 168 422
e 168 423
e 168 425
e 168 426
e 168 427
e 168 432
e 168 438
e 168 445
e 168 461
e 168 464
e 168 466
e 168 469
e 168 470
e 168 473
e 168 480
e 168 481
e 168 492
e 169 172
e 169 174
e 169 175
e 169 180
e 169 183
e 169 194
e 169 195
e 169 199
e 169 200
e 169 203
e 169 206
e 169 208
e 169 210
e 169 212
e 169 215
e 169 226
e 169 230
e 169 237
e 169 238
e 169 240
e 169 241
e 169 243
e 169 247
e 169 248
e 169 253
e 169 255
e 169 257
e 169 258
e 169 259
e 169 260
e 169 261
e 169 263
e 169 264
e 169 267
e 169 268
e 169 270
e 169 275
e 169 279
e 169 280
e 169 282
e 169 287
e 169 288
e 169 291
e 169 292
e 169 293
e 169 295
e 169 299
e 169 300
e 169 302
e 169 303
e 169 304
e 169 308
e 169 309
e 169 314
e 169 325
e 169 327
e 169 329
e 169 334
e 169 337
e 169 338
e 169 340
e 169 350
e 169 352
e 169 355
e 169 356
e 169 357
e 169 359
e 169 361
e 169 365
e 169 367
e 169 368
e 169 372
e 169 381
e 169 384
e 169 387
e 169 388
e 169 391
e 169 392
e 169 394
e 169 397
e 169 398
e 169 400
e 169 404
e 169 408
e 169 413
e 169 414
e 169 416
e 169 419
e 169 420
e 169 425
e 169 431
e 169 433
e 169 435
e 169 438
e 169 442
e 169 447
e 169 450
e 169 453
e 169 459
e 169 460
e 169 461
e 169 466
e 169 467
e 169 469
e 169 474
e 169 479
e 169 481
e 169 485
e 169 492
e 169 495
e 169 497
e 170 171
e 170 174
e 170 181
e 170 185
e 170 187
e 170 193
e 170 203
e 170 205
e 170 207
e 170 211
e 170 218
e 170 220
e 170 234
e 170 237
e 170 239
e 170 240
e 170 244
e 170 248
e 170 249
e 170 252
e 170 253
e 170 255
e 170 256
e 170 259
e 170 261
e 170 264
e 170 265
e 170 266
e 170 270
e 170 273
e 170 283
e 170 287
e 170 295
e 170 297
e 170 298
e 170 300
e 170 310
e 170 313
e 170 317
e 170 320
e 170 321
e 170 327
e 170 328
e 170 339
e 170 343
e 170 348
e 170 349
e 170 354
e 170 355
e 170 357
e 170 358
e 170 361
e 170 367
e 170 368
e 170 373
e 170 377
e 170 379
e 170 381
e 170 382
e 170 383
e 170 384
e 170 386
e 170 389
e 170 390
e 170 391
e 170 400
e 170 402
e 170 405
e 170 406
e 170 412
e 170 416
e 170 419
e 170 425
e 170 426
e 170 427
e 170 440
e 170 442
e 170 446
e 170 460
e 170 464
e 170 465
e 170 470
e 170 475
e 170 480
e 170 484
e 170 485
e 170 486
e 170 493
e 170 495
e 171 174
e 171 175
e 171 178
e 171 189
e 171 194
e 171 199
e 171 208
e 171 211
e 171 214
e 171 216
e 171 217
e 171 220
e 171 223
e 171 224
e 171 227
e 171 229
e 171 231
e 171 245
e 171 248
e 171 250
e 171 259
e 171 261
e 171 262
e 171 264
e 171 269
e 171 271
e 171 276
e 171 278
e 171 281
e 171 293
e 171 294
e 171 295
e 171 300
e 171 302
e 171 310
e 171 322
e 171 323
e 171 328
e 171 335
e 171 345
e 171 346
e 171 350
e 171 353
e 171 354
e 171 356
e 171 367
e 171 371
e 171 375
e 171 377
e 171 378
e 171 384
e 171 389
e 171 391
e 171 394
e 171 399
e 171 400
e 171 401
e 171 404
e 171 415
e 171 418
e 171 423
e 171 426
e 171 429
e 171 433
e 171 442
e 171 450
e 171 452
e 171 457
e 171 458
e 171 459
e 171 463
e 171 469
e 171 470
e 171 473
e 171 475
e 171 476
e 171 479
e 171 482
e 171 483
e 171 485
e 171 494
e 171 499
e 171 500
e 172 176
e 172 184
e 172 186
e 172 189
e 172 190
e 172 193
e 172 198
e 172 199
e 172 203
e 172 207
e 172 209
e 172 212
e 172 216
e 172 223
e 172 230
e 172 231
e 172 232
e 172 235
e 172 238
e 172 239
e 172 242
e 172 245
e 172 246
e 172 247
e 172 251
e 172 255
e 172 260
e 172 261
e 172 263
e 172 265
e 172 266
e 172 277
e 172 278
e 172 279
e 172 281
e 172 282
e 172 288
e 172 293
e 172 301
e 172 303
e 172 305
e 172 306
e 172 314
e 172 319
e 172 321
e 172 327
e 172 333
e 172 334
e 172 337
e 172 341
e 172 345
e 172 346
e 172 350
e 172 354
e 172 359
e 172 364
e 172 373
e 172 375
e 172 376
e 172 379
e 172 380
e 172 381
e 172 382
e 172 383
e 172 386
e 172 401
e 172 404
e 172 406
e 172 408
e 172 409
e 172 418
e 172 420
e 172 422
e 172 425
e 172 427
e 172 428
e 172 431
e 172 434
e 172 435
e 172 438
e 172 439
e 172 440
e 172 441
e 172 449
e 172 452
e 172 460
e 172 461
e 172 464
e 172 465
e 172 468
e 172 472
e 172 473
e 172 478
e 172 481
e 172 482
e 172 488
e 172 491
e 172 498
e 172 499
e 173 176
e 173 177
e 173 180
e 173 181
e 173 182
e 173 184
e 173 185
e 173 187
e 173 196
e 173 197
e 173 198
e 173 201
e 173 204
e 173 206
e 173 207
e 173 214
e 173 215
e 173 216
e 173 218
e 173 220
e 173 224
e 173 227
e 173 228
e 173 233
e 173 240
e 173 245
e 173 247
e 173 254
e 173 257
e 173 262
e 173 271
e 173 274
e 173 282
e 173 283
e 173 287
e 173 288
e 173 291
e 173 293
e 173 296
e 173 300
e 173 301
e 173 304
e 173 305
e 173 306
e 173 307
e 173 309
e 173 310
e 173 314
e 173 317
e 173 319
e 173 321
e 173 322
e 173 323
e 173 324
e 173 333
e 173 339
e 173 343
e 173 347
e 173 348
e 173 349
e 173 351
e 173 356
e 173 358
e 173 361
e 173 369
e 173 374
e 173 375
e 173 376
e 173 379
e 173 389
e 173 393
e 173 394
e 173 395
e 173 396
e 173 398
e 173 399
e 173 400
e 173 409
e 173 413
e 173 418
e 173 419
e 173 426
e 173 429
e 173 431
e 173 432
e 173 433
e 173 434
e 173 435
e 173 438
e 173 443
e 173 446
e 173 447
e 173 449
e 173 451
e 173 452
e 173 453
e 173 457
e 173 464
e 173 466
e 173 469
e 173 471
e 173 475
e 173 479
e 173 486
e 173 487
e 173 494
e 173 495
e 173 500
e 174 176
e 174 177
e 174 182
e 174 186
e 174 187
e 174 189
e 174 200
e 174 206
e 174 214
e 174 217
e 174 219
e 174 223
e 174 224
e 174 228
e 174 231
e 174 235
e 174 242
e 174 245
e 174 247
e 174 250
e 174 253
e 174 262
e 174 265
e 174 266
e 174 268
e 174 273
e 174 275
e 174 277
e 174 278
e 174 283
e 174 289
e 174 292
e 174 299
e 174 300
e 174 303
e 174 304
e 174 305
e 174 306
e 174 307
e 174 312
e 174 327
e 174 329
e 174 339
e 174 345
e 174 346
e 174 347
e 174 348
e 174 350
e 174 364
e 174 366
e 174 375
e 174 377
e 174 382
e 174 383
e 174 384
e 174 390
e 174 393
e 174 396
e 174 401
e 174 407
e 174 411
e 174 413
e 174 417
e 174 422
e 174 423
e 174 427
e 174 429
e 174 430
e 174 431
e 174 440
e 174 443
e 174 447
e 174 448
e 174 449
e 174 453
e 174 456
e 174 461
e 174 466
e 174 468
e 174 469
e 174 474
e 174 478
e 174 480
e 174 481
e 174 485
e 174 491
e 174 496
e 174 498
e 175 179
e 175 184
e 175 185
e 175 190
e 175 193
e 175 194
e 175 195
e 175 198
e 175 200
e 175 202
e 175 210
e 175 213
e 175 214
e 175 216
e 175 217
e 175 218
e 175 225
e 175 237
e 175 239
e 175 242
e 175 243
e 175 246
e 175 249
e 175 250
e 175 253
e 175 256
e 175 260
e 175 270
e 175 272
e 175 273
e 175 274
e 175 275
e 175 277
e 175 281
e 175 282
e 175 283
e 175 285
e 175 286
e 175 289
e 175 294
e 175 303
e 175 307
e 175 313
e 175 315
e 175 317
e 175 321
e 175 322
e 175 323
e 175 326
e 175 329
e 175 334
e 175 335
e 175 341
e 175 345
e 175 354
e 175 356
e 175 358
e 175 360
e 175 364
e 175 366
e 175 369
e 175 373
e 175 376
e 175 379
e 175 386
e 175 396
e 175 397
e 175 399
e 175 402
e 175 408
e 175 410
e 175 412
e 175 422
e 175 423
e 175 425
e 175 432
e 175 435
e 175 436
e 175 438
e 175 447
e 175 448
e 175 451
e 175 452
e 175 463
e 175 466
e 175 468
e 175 471
e 175 473
e 175 477
e 175 489
e 175 491
e 175 497
e 176 182
e 176 183
e 176 191
e 176 193
e 176 197
e 176 200
e 176 202
e 176 208
e 176 210
e 176 214
e 176 215
e 176 217
e 176 221
e 176 222
e 176 235
e 176 238
e 176 245
e 176 246
e 176 254
e 176 256
e 176 259
e 176 260
e 176 261
e 176 271
e 176 277
e 176 278
e 176 281
e 176 282
e 176 286
e 176 291
e 176 295
e 176 304
e 176 306
e 176 308
e 176 313
e 176 314
e 176 318
e 176 319
e 176 324
e 176 326
e 176 327
e 176 329
e 176 333
e 176 336
e 176 338
e 176 346
e 176 349
e 176 350
e 176 351
e 176 354
e 176 359
e 176 361
e 176 367
e 176 368
e 176 376
e 176 377
e 176 383
e 176 385
e 176 387
e 176 391
e 176 398
e 176 401
e 176 406
e 176 407
e 176 412
e 176 413
e 176 414
e 176 416
e 176 426
e 176 429
e 176 436
e 176 440
e 176 443
e 176 444
e 176 446
e 176 450
e 176 451
e 176 454
e 176 460
e 176 463
e 176 464
e 176 465
e 176 470
e 176 471
e 176 475
e 176 476
e 176 477
e 176 478
e 176 481
e 176 482
e 176 485
e 176 487
e 176 489
e 176 494
e 176 497
e 176 499
e 177 180
e 177 185
e 177 186
e 177 190
e 177 194
e 177 195
e 177 205
e 177 213
e 177 221
e 177 222
e 177 224
e 177 225
e 177 226
e 177 229
e 177 233
e 177 234
e 177 235
e 177 238
e 177 239
e 177 242
e 177 246
e 177 247
e 177 251
e 177 255
e 177 256
e 177 257
e 177 264
e 177 265
e 177 270
e 177 271
e 177 272
e 177 275
e 177 276
e 177 279
e 177 282
e 177 285
e 177 286
e 177 291
e 177 297
e 177 298
e 177 300
e 177 305
e 177 311
e 177 318
e 177 321
e 177 324
e 177 340
e 177 345
e 177 350
e 177 359
e 177 360
e 177 362
e 177 370
e 177 372
e 177 373
e 177 375
e 177 376
e 177 383
e 177 387
e 177 388
e 177 389
e 177 391
e 177 395
e 177 397
e 177 400
e 177 408
e 177 421
e 177 423
e 177 424
e 177 425
e 177 426
e 177 428
e 177 435
e 177 436
e 177 437
e 177 439
e 177 449
e 177 451
e 177 452
e 177 459
e 177 463
e 177 466
e 177 468
e 177 472
e 177 480
e 177 483
e 177 485
e 177 487
e 177 488
e 177 489
e 177 496
e 177 498
e 178 180
e 178 182
e 178 187
e 178 192
e 178 194
e 178 197
e 178 202
e 178 204
e 178 206
e 178 209
e 178 212
e 178 226
e 178 229
e 178 236
e 178 239
e 178 243
e 178 245
e 178 250
e 178 251
e 178 253
e 178 255
e 178 256
e 178 257
e 178 258
e 178 261
e 178 263
e 178 264
e 178 267
e 178 271
e 178 273
e 178 277
e 178 280
e 178 291
e 178 295
e 178 304
e 178 308
e 178 309
e 178 311
e 178 319
e 178 320
e 178 321
e 178 322
e 178 323
e 178 328
e 178 331
e 178 336
e 178 337
e 178 340
e 178 342
e 178 343
e 178 344
e 178 347
e 178 348
e 178 352
e 178 360
e 178 368
e 178 369
e 178 370
e 178 373
e 178 378
e 178 380
e 178 384
e 178 385
e 178 389
e 178 393
e 178 395
e 178 396
e 178 398
e 178 399
e 178 403
e 178 410
e 178 416
e 178 420
e 178 421
e 178 423
e 178 426
e 178 427
e 178 428
e 178 431
e 178 434
e 178 438
e 178 439
e 178 441
e 178 442
e 178 444
e 178 447
e 178 454
e 178 460
e 178 461
e 178 465
e 178 466
e 178 467
e 178 471
e 178 475
e 178 476
e 178 480
e 178 494
e 178 495
e 179 181
e 179 182
e 179 185
e 179 201
e 179 204
e 179 205
e 179 212
e 179 215
e 179 216
e 179 217
e 179 221
e 179 231
e 179 238
e 179 245
e 179 250
e 179 253
e 179 254
e 179 256
e 179 259
e 179 262
e 179 263
e 179 264
e 179 267
e 179 271
e 179 282
e 179 285
e 179 286
e 179 289
e 179 294
e 179 297
e 179 298
e 179 300
e 179 304
e 179 306
e 179 311
e 179 317
e 179 320
e 179 326
e 179 334
e 179 336
e 179 341
e 179 344
e 179 349
e 179 354
e 179 356
e 179 358
e 179 361
e 179 362
e 179 363
e 179 367
e 179 368
e 179 369
e 179 370
e 179 371
e 179 372
e 179 375
e 179 378
e 179 384
e 179 385
e 179 389
e 179 392
e 179 393
e 179 394
e 179 399
e 179 400
e 179 406
e 179 407
e 179 410
e 179 412
e 179 421
e 179 425
e 179 428
e 179 431
e 179 432
e 179 433
e 179 442
e 179 445
e 179 449
e 179 455
e 179 458
e 179 461
e 179 465
e 179 469
e 179 471
e 179 472
e 179 474
e 179 479
e 179 485
e 179 486
e 179 488
e 179 491
e 179 492
e 179 498
e 180 184
e 180 185
e 180 186
e 180 189
e 180 190
e 180 192
e 180 199
e 180 200
e 180 205
e 180 208
e 180 210
e 180 211
e 180 217
e 180 218
e 180 222
e 180 224
e 180 226
e 180 227
e 180 231
e 180 235
e 180 237
e 180 238
e 180 243
e 180 245
e 180 249
e 180 252
e 180 255
e 180 257
e 180 260
e 180 261
e 180 262
e 180 267
e 180 268
e 180 271
e 180 272
e 180 275
e 180 277
e 180 280
e 180 285
e 180 290
e 180 300
e 180 302
e 180 305
e 180 306
e 180 317
e 180 323
e 180 324
e 180 333
e 180 336
e 180 338
e 180 339
e 180 340
e 180 342
e 180 344
e 180 349
e 180 350
e 180 352
e 180 353
e 180 356
e 180 360
e 180 364
e 180 366
e 180 368
e 180 369
e 180 370
e 180 376
e 180 377
e 180 381
e 180 382
e 180 384
e 180 385
e 180 386
e 180 387
e 180 389
e 180 393
e 180 394
e 180 397
e 180 406
e 180 412
e 180 423
e 180 429
e 180 430
e 180 431
e 180 440
e 180 445
e 180 447
e 180 452
e 180 453
e 180 456
e 180 457
e 180 466
e 180 469
e 180 470
e 180 472
e 180 473
e 180 481
e 180 482
e 180 485
e 180 489
e 180 490
e 180 491
e 181 182
e 181 183
e 181 190
e 181 192
e 181 193
e 181 195
e 181 196
e 181 205
e 181 209
e 181 211
e 181 217
e 181 218
e 181 222
e 181 231
e 181 236
e 181 249
e 181 253
e 181 255
e 181 256
e 181 258
e 181 268
e 181 273
e 181 274
e 181 276
e 181 277
e 181 279
e 181 280
e 181 284
e 181 287
e 181 288
e 181 290
e 181 292
e 181 293
e 181 299
e 181 300
e 181 302
e 181 303
e 181 304
e 181 307
e 181 310
e 181 315
e 181 316
e 181 318
e 181 322
e 181 323
e 181 336
e 181 339
e 181 341
e 181 347
e 181 350
e 181 355
e 181 356
e 181 357
e 181 365
e 181 367
e 181 368
e 181 373
e 181 375
e 181 379
e 181 385
e 181 386
e 181 387
e 181 389
e 181 390
e 181 395
e 181 401
e 181 419
e 181 421
e 181 422
e 181 430
e 181 435
e 181 437
e 181 439
e 181 443
e 181 444
e 181 447
e 181 452
e 181 453
e 181 454
e 181 459
e 181 461
e 181 462
e 181 464
e 181 465
e 181 467
e 181 468
e 181 469
e 181 470
e 181 472
e 181 474
e 181 476
e 181 478
e 181 481
e 181 482
e 181 485
e 181 487
e 181 488
e 181 490
e 181 491
e 181 500
e 182 183
e 182 186
e 182 198
e 182 201
e 182 204
e 182 205
e 182 207
e 182 209
e 182 212
e 182 215
e 182 224
e 182 237
e 182 240
e 182 242
e 182 243
e 182 246
e 182 249
e 182 250
e 182 254
e 182 256
e 182 258
e 182 260
e 182 261
e 182 263
e 182 271
e 182 275
e 182 277
e 182 281
e 182 284
e 182 285
e 182 286
e 182 288
e 182 290
e 182 294
e 182 295
e 182 296
e 182 299
e 182 301
e 182 309
e 182 311
e 182 314
e 182 318
e 182 319
e 182 320
e 182 324
e 182 326
e 182 339
e 182 344
e 182 347
e 182 353
e 182 361
e 182 363
e 182 369
e 182 374
e 182 377
e 182 381
e 182 382
e 182 385
e 182 393
e 182 394
e 182 397
e 182 398
e 182 399
e 182 400
e 182 403
e 182 408
e 182 412
e 182 416
e 182 418
e 182 422
e 182 428
e 182 434
e 182 436
e 182 437
e 182 438
e 182 439
e 182 441
e 182 446
e 182 448
e 182 452
e 182 455
e 182 461
e 182 463
e 182 464
e 182 465
e 182 468
e 182 471
e 182 472
e 182 473
e 182 474
e 182 476
e 182 481
e 182 490
e 182 491
e 182 492
e 182 495
e 182 498
e 182 499
e 182 500
e 183 187
e 183 192
e 183 195
e 183 199
e 183 201
e 183 202
e 183 204
e 183 215
e 183 217
e 183 219
e 183 225
e 183 232
e 183 233
e 183 237
e 183 243
e 183 246
e 183 249
e 183 253
e 183 256
e 183 262
e 183 263
e 183 267
e 183 273
e 183 274
e 183 277
e 183 279
e 183 283
e 183 285
e 183 288
e 183 291
e 183 296
e 183 298
e 183 311
e 183 313
e 183 314
e 183 315
e 183 317
e 183 320
e 183 321
e 183 322
e 183 324
e 183 329
e 183 333
e 183 335
e 183 337
e 183 339
e 183 344
e 183 349
e 183 351
e 183 352
e 183 356
e 183 369
e 183 373
e 183 374
e 183 379
e 183 380
e 183 389
e 183 390
e 183 391
e 183 397
e 183 400
e 183 412
e 183 415
e 183 417
e 183 418
e 183 419
e 183 422
e 183 431
e 183 436
e 183 439
e 183 441
e 183 444
e 183 447
e 183 452
e 183 462
e 183 465
e 183 469
e 183 472
e 183 474
e 183 476
e 183 478
e 183 485
e 183 486
e 183 487
e 183 488
e 183 489
e 183 497
e 183 500
e 184 185
e 184 194
e 184 195
e 184 196
e 184 199
e 184 200
e 184 202
e 184 204
e 184 205
e 184 209
e 184 216
e 184 218
e 184 219
e 184 220
e 184 221
e 184 222
e 184 227
e 184 230
e 184 241
e 184 250
e 184 254
e 184 257
e 184 259
e 184 260
e 184 264
e 184 267
e 184 268
e 184 269
e 184 272
e 184 276
e 184 280
e 184 283
e 184 284
e 184 289
e 184 293
e 184 296
e 184 307
e 184 310
e 184 311
e 184 316
e 184 323
e 184 331
e 184 332
e 184 335
e 184 336
e 184 338
e 184 339
e 184 350
e 184 351
e 184 355
e 184 356
e 184 360
e 184 362
e 184 364
e 184 366
e 184 368
e 184 369
e 184 370
e 184 375
e 184 378
e 184 383
e 184 385
e 184 387
e 184 389
e 184 396
e 184 398
e 184 408
e 184 410
e 184 413
e 184 414
e 184 419
e 184 421
e 184 425
e 184 427
e 184 428
e 184 430
e 184 435
e 184 436
e 184 444
e 184 449
e 184 450
e 184 452
e 184 454
e 184 460
e 184 462
e 184 466
e 184 467
e 184 469
e 184 482
e 184 483
e 184 484
e 184 485
e 184 486
e 184 489
e 184 493
e 185 186
e 185 200
e 185 201
e 185 203
e 185 208
e 185 211
e 185 213
e 185 214
e 185 215
e 185 219
e 185 225
e 185 226
e 185 232
e 185 239
e 185 242
e 185 243
e 185 251
e 185 255
e 185 256
e 185 267
e 185 273
e 185 277
e 185 278
e 185 281
e 185 290
e 185 296
e 185 297
e 185 301
e 185 305
e 185 307
e 185 309
e 185 310
e 185 313
e 185 320
e 185 322
e 185 333
e 185 342
e 185 347
e 185 349
e 185 358
e 185 362
e 185 369
e 185 375
e 185 378
e 185 386
e 185 389
e 185 390
e 185 391
e 185 392
e 185 397
e 185 402
e 185 404
e 185 405
e 185 418
e 185 420
e 185 423
e 185 427
e 185 430
e 185 431
e 185 436
e 185 439
e 185 440
e 185 441
e 185 442
e 185 443
e 185 444
e 185 447
e 185 449
e 185 453
e 185 457
e 185 458
e 185 460
e 185 463
e 185 467
e 185 468
e 185 475
e 185 478
e 185 483
e 185 484
e 185 486
e 185 494
e 185 498
e 186 192
e 186 195
e 186 197
e 186 198
e 186 201
e 186 203
e 186 205
e 186 207
e 186 208
e 186 209
e 186 216
e 186 219
e 186 220
e 186 222
e 186 225
e 186 226
e 186 230
e 186 235
e 186 236
e 186 237
e 186 238
e 186 241
e 186 242
e 186 246
e 186 255
e 186 260
e 186 261
e 186 263
e 186 265
e 186 266
e 186 268
e 186 269
e 186 277
e 186 279
e 186 280
e 186 281
e 186 284
e 186 289
e 186 291
e 186 292
e 186 294
e 186 297
e 186 301
e 186 302
e 186 304
e 186 306
e 186 308
e 186 310
e 186 311
e 186 314
e 186 317
e 186 319
e 186 321
e 186 323
e 186 324
e 186 331
e 186 336
e 186 341
e 186 342
e 186 344
e 186 345
e 186 352
e 186 353
e 186 356
e 186 359
e 186 361
e 186 370
e 186 371
e 186 377
e 186 378
e 186 382
e 186 384
e 186 386
e 186 387
e 186 391
e 186 393
e 186 397
e 186 398
e 186 404
e 186 405
e 186 410
e 186 414
e 186 417
e 186 418
e 186 419
e 186 420
e 186 422
e 186 428
e 186 429
e 186 431
e 186 433
e 186 434
e 186 438
e 186 439
e 186 444
e 186 447
e 186 448
e 186 450
e 186 451
e 186 453
e 186 454
e 186 457
e 186 458
e 186 468
e 186 471
e 186 472
e 186 474
e 186 478
e 186 479
e 186 494
e 186 497
e 186 500
e 187 188
e 187 189
e 187 191
e 187 192
e 187 202
e 187 204
e 187 206
e 187 208
e 187 210
e 187 212
e 187 213
e 187 215
e 187 218
e 187 226
e 187 231
e 187 234
e 187 235
e 187 240
e 187 249
e 187 259
e 187 262
e 187 263
e 187 268
e 187 273
e 187 282
e 187 293
e 187 296
e 187 302
e 187 304
e 187 308
e 187 309
e 187 312
e 187 315
e 187 317
e 187 318
e 187 322
e 187 326
e 187 328
e 187 329
e 187 331
e 187 333
e 187 341
e 187 343
e 187 349
e 187 352
e 187 355
e 187 357
e 187 362
e 187 364
e 187 366
e 187 368
e 187 373
e 187 378
e 187 383
e 187 390
e 187 393
e 187 395
e 187 396
e 187 397
e 187 402
e 187 404
e 187 405
e 187 410
e 187 414
e 187 418
e 187 420
e 187 425
e 187 430
e 187 435
e 187 436
e 187 443
e 187 444
e 187 449
e 187 452
e 187 453
e 187 454
e 187 458
e 187 461
e 187 465
e 187 467
e 187 468
e 187 473
e 187 475
e 187 477
e 187 480
e 187 482
e 187 485
e 187 486
e 187 487
e 187 488
e 187 494
e 187 497
e 187 498
e 188 190
e 188 191
e 188 193
e 188 199
e 188 210
e 188 213
e 188 221
e 188 222
e 188 223
e 188 225
e 188 227
e 188 228
e 188 232
e 188 234
e 188 236
e 188 237
e 188 239
e 188 240
e 188 245
e 188 253
e 188 255
e 188 261
e 188 265
e 188 274
e 188 279
e 188 284
e 188 287
e 188 290
e 188 291
e 188 298
e 188 301
e 188 303
e 188 305
e 188 309
e 188 314
e 188 317
e 188 318
e 188 322
e 188 323
e 188 336
e 188 349
e 188 352
e 188 359
e 188 361
e 188 362
e 188 365
e 188 367
e 188 368
e 188 369
e 188 370
e 188 372
e 188 375
e 188 379
e 188 384
e 188 392
e 188 398
e 188 402
e 188 404
e 188 409
e 188 410
e 188 411
e 188 416
e 188 419
e 188 423
e 188 426
e 188 428
e 188 430
e 188 433
e 188 438
e 188 439
e 188 442
e 188 445
e 188 449
e 188 452
e 188 454
e 188 455
e 188 456
e 188 457
e 188 459
e 188 461
e 188 464
e 188 469
e 188 473
e 188 477
e 188 478
e 188 480
e 188 483
e 188 488
e 188 493
e 188 495
e 188 500
e 189 192
e 189 198
e 189 201
e 189 211
e 189 212
e 189 219
e 189 221
e 189 224
e 189 225
e 189 226
e 189 228
e 189 229
e 189 230
e 189 234
e 189 236
e 189 239
e 189 242
e 189 244
e 189 257
e 189 259
e 189 260
e 189 269
e 189 280
e 189 281
e 189 284
e 189 286
e 189 287
e 189 290
e 189 291
e 189 292
e 189 297
e 189 300
e 189 302
e 189 303
e 189 304
e 189 305
e 189 308
e 189 311
e 189 313
e 189 316
e 189 317
e 189 322
e 189 324
e 189 325
e 189 326
e 189 328
e 189 331
e 189 336
e 189 337
e 189 342
e 189 344
e 189 346
e 189 350
e 189 351
e 189 354
e 189 355
e 189 357
e 189 360
e 189 361
e 189 363
e 189 365
e 189 371
e 189 376
e 189 381
e 189 386
e 189 390
e 189 391
e 189 402
e 189 406
e 189 407
e 189 415
e 189 416
e 189 421
e 189 423
e 189 433
e 189 434
e 189 437
e 189 444
e 189 447
e 189 448
e 189 450
e 189 455
e 189 456
e 189 457
e 189 458
e 189 462
e 189 466
e 189 482
e 189 487
e 189 488
e 189 489
e 189 494
e 189 496
e 190 193
e 190 195
e 190 196
e 190 197
e 190 198
e 190 205
e 190 207
e 190 209
e 190 215
e 190 230
e 190 236
e 190 238
e 190 243
e 190 244
e 190 248
e 190 249
e 190 251
e 190 254
e 190 256
e 190 259
e 190 260
e 190 265
e 190 267
e 190 268
e 190 276
e 190 283
e 190 284
e 190 289
e 190 294
e 190 297
e 190 298
e 190 300
e 190 304
e 190 306
e 190 307
e 190 313
e 190 324
e 190 329
e 190 330
e 190 335
e 190 339
e 190 340
e 190 343
e 190 347
e 190 349
e 190 350
e 190 361
e 190 362
e 190 368
e 190 370
e 190 371
e 190 374
e 190 376
e 190 382
e 190 387
e 190 390
e 190 391
e 190 393
e 190 397
e 190 405
e 190 406
e 190 412
e 190 415
e 190 416
e 190 429
e 190 434
e 190 435
e 190 438
e 190 439
e 190 442
e 190 443
e 190 445
e 190 446
e 190 458
e 190 459
e 190 467
e 190 468
e 190 471
e 190 478
e 190 479
e 190 480
e 190 482
e 190 484
e 190 485
e 190 486
e 190 490
e 190 492
e 190 499
e 191 196
e 191 197
e 191 204
e 191 205
e 191 206
e 191 208
e 191 217
e 191 221
e 191 222
e 191 223
e 191 224
e 191 225
e 191 244
e 191 248
e 191 252
e 191 255
e 191 257
e 191 260
e 191 263
e 191 264
e 191 267
e 191 269
e 191 274
e 191 278
e 191 282
e 191 290
e 191 292
e 191 297
e 191 301
e 191 302
e 191 305
e 191 309
e 191 310
e 191 314
e 191 319
e 191 322
e 191 323
e 191 324
e 191 326
e 191 327
e 191 329
e 191 343
e 191 347
e 191 349
e 191 351
e 191 353
e 191 354
e 191 356
e 191 361
e 191 363
e 191 366
e 191 367
e 191 368
e 191 371
e 191 373
e 191 374
e 191 378
e 191 384
e 191 386
e 191 388
e 191 389
e 191 390
e 191 391
e 191 392
e 191 398
e 191 407
e 191 413
e 191 415
e 191 417
e 191 421
e 191 422
e 191 434
e 191 438
e 191 442
e 191 443
e 191 452
e 191 453
e 191 456
e 191 459
e 191 464
e 191 465
e 191 466
e 191 471
e 191 479
e 191 481
e 191 484
e 191 486
e 191 487
e 191 498
e 192 197
e 192 198
e 192 202
e 192 203
e 192 204
e 192 205
e 192 207
e 192 210
e 192 211
e 192 212
e 192 219
e 192 220
e 192 234
e 192 240
e 192 244
e 192 245
e 192 248
e 192 249
e 192 255
e 192 261
e 192 263
e 192 265
e 192 267
e 192 269
e 192 271
e 192 275
e 192 278
e 192 279
e 192 280
e 192 291
e 192 292
e 192 295
e 192 296
e 192 299
e 192 300
e 192 303
e 192 305
e 192 310
e 192 313
e 192 314
e 192 317
e 192 318
e 192 319
e 192 322
e 192 323
e 192 332
e 192 333
e 192 338
e 192 339
e 192 343
e 192 346
e 192 350
e 192 353
e 192 354
e 192 359
e 192 360
e 192 363
e 192 365
e 192 369
e 192 371
e 192 374
e 192 375
e 192 376
e 192 382
e 192 398
e 192 407
e 192 409
e 192 411
e 192 413
e 192 416
e 192 421
e 192 422
e 192 423
e 192 426
e 192 428
e 192 430
e 192 433
e 192 436
e 192 437
e 192 439
e 192 441
e 192 444
e 192 446
e 192 447
e 192 448
e 192 459
e 192 464
e 192 469
e 192 470
e 192 472
e 192 473
e 192 474
e 192 475
e 192 477
e 192 478
e 192 482
e 192 483
e 192 484
e 192 490
e 192 491
e 192 496
e 193 200
e 193 201
e 193 203
e 193 204
e 193 205
e 193 207
e 193 208
e 193 209
e 193 211
e 193 217
e 193 220
e 193 228
e 193 229
e 193 232
e 193 234
e 193 236
e 193 241
e 193 244
e 193 248
e 193 249
e 193 253
e 193 255
e 193 258
e 193 261
e 193 266
e 193 269
e 193 272
e 193 275
e 193 276
e 193 278
e 193 279
e 193 283
e 193 285
e 193 289
e 193 290
e 193 302
e 193 303
e 193 306
e 193 307
e 193 308
e 193 311
e 193 319
e 193 320
e 193 334
e 193 336
e 193 342
e 193 343
e 193 344
e 193 346
e 193 347
e 193 348
e 193 360
e 193 361
e 193 364
e 193 367
e 193 370
e 193 385
e 193 388
e 193 389
e 193 390
e 193 396
e 193 397
e 193 400
e 193 402
e 193 404
e 193 407
e 193 409
e 193 410
e 193 415
e 193 429
e 193 437
e 193 441
e 193 443
e 193 444
e 193 445
e 193 448
e 193 454
e 193 460
e 193 462
e 193 468
e 193 471
e 193 472
e 193 478
e 193 479
e 193 480
e 193 482
e 193 483
e 193 484
e 193 487
e 193 489
e 193 495
e 193 498
e 194 197
e 194 198
e 194 202
e 194 204
e 194 205
e 194 210
e 194 213
e 194 214
e 194 215
e 194 216
e 194 218
e 194 219
e 194 220
e 194 222
e 194 228
e 194 230
e 194 236
e 194 239
e 194 240
e 194 244
e 194 247
e 194 249
e 194 250
e 194 251
e 194 261
e 194 268
e 194 269
e 194 272
e 194 275
e 194 283
e 194 292
e 194 293
e 194 294
e 194 297
e 194 303
e 194 304
e 194 309
e 194 313
e 194 314
e 194 328
e 194 331
e 194 336
e 194 341
e 194 345
e 194 346
e 194 348
e 194 349
e 194 351
e 194 355
e 194 357
e 194 358
e 194 359
e 194 362
e 194 365
e 194 366
e 194 368
e 194 373
e 194 374
e 194 376
e 194 390
e 194 392
e 194 393
e 194 396
e 194 397
e 194 398
e 194 403
e 194 406
e 194 408
e 194 411
e 194 413
e 194 414
e 194 421
e 194 422
e 194 434
e 194 444
e 194 452
e 194 459
e 194 463
e 194 464
e 194 465
e 194 469
e 194 472
e 194 473
e 194 474
e 194 476
e 194 477
e 194 478
e 194 480
e 194 481
e 194 484
e 194 487
e 194 488
e 194 497
e 194 499
e 195 200
e 195 201
e 195 202
e 195 204
e 195 208
e 195 209
e 195 220
e 195 223
e 195 226
e 195 231
e 195 238
e 195 247
e 195 248
e 195 250
e 195 252
e 195 256
e 195 263
e 195 265
e 195 267
e 195 271
e 195 280
e 195 283
e 195 284
e 195 294
e 195 295
e 195 296
e 195 298
e 195 300
e 195 302
e 195 304
e 195 306
e 195 310
e 195 314
e 195 316
e 195 317
e 195 323
e 195 324
e 195 326
e 195 332
e 195 333
e 195 336
e 195 337
e 195 339
e 195 348
e 195 350
e 195 351
e 195 355
e 195 357
e 195 359
e 195 367
e 195 370
e 195 373
e 195 377
e 195 392
e 195 393
e 195 395
e 195 397
e 195 400
e 195 406
e 195 407
e 195 410
e 195 411
e 195 412
e 195 416
e 195 417
e 195 418
e 195 422
e 195 423
e 195 425
e 195 426
e 195 427
e 195 428
e 195 432
e 195 433
e 195 434
e 195 437
e 195 439
e 195 443
e 195 444
e 195 446
e 195 447
e 195 449
e 195 455
e 195 456
e 195 458
e 195 459
e 195 460
e 195 464
e 195 471
e 195 473
e 195 477
e 195 480
e 195 481
e 195 483
e 195 489
e 195 492
e 195 496
e 195 498
e 195 499
e 196 202
e 196 203
e 196 206
e 196 209
e 196 210
e 196 211
e 196 212
e 196 219
e 196 223
e 196 224
e 196 226
e 196 237
e 196 241
e 196 242
e 196 248
e 196 250
e 196 251
e 196 252
e 196 261
e 196 262
e 196 268
e 196 270
e 196 274
e 196 275
e 196 279
e 196 282
e 196 286
e 196 291
e 196 293
e 196 300
e 196 301
e 196 305
e 196 309
e 196 311
e 196 312
e 196 313
e 196 314
e 196 319
e 196 320
e 196 322
e 196 326
e 196 327
e 196 328
e 196 335
e 196 338
e 196 340
e 196 345
e 196 346
e 196 347
e 196 350
e 196 353
e 196 354
e 196 355
e 196 357
e 196 362
e 196 366
e 196 367
e 196 370
e 196 373
e 196 377
e 196 380
e 196 381
e 196 382
e 196 383
e 196 388
e 196 389
e 196 390
e 196 393
e 196 396
e 196 405
e 196 407
e 196 408
e 196 409
e 196 410
e 196 411
e 196 413
e 196 414
e 196 426
e 196 429
e 196 430
e 196 431
e 196 432
e 196 442
e 196 443
e 196 444
e 196 445
e 196 452
e 196 457
e 196 460
e 196 463
e 196 469
e 196 470
e 196 475
e 196 478
e 196 479
e 196 484
e 196 488
e 196 491
e 196 495
e 196 498
e 196 500
e 197 199
e 197 202
e 197 208
e 197 209
e 197 210
e 197 212
e 197 222
e 197 230
e 197 231
e 197 233
e 197 235
e 197 237
e 197 239
e 197 244
e 197 246
e 197 247
e 197 248
e 197 249
e 197 253
e 197 255
e 197 256
e 197 257
e 197 258
e 197 259
e 197 269
e 197 272
e 197 275
e 197 277
e 197 279
e 197 280
e 197 284
e 197 285
e 197 286
e 197 287
e 197 288
e 197 291
e 197 292
e 197 295
e 197 297
e 197 299
e 197 309
e 197 310
e 197 311
e 197 321
e 197 327
e 197 329
e 197 330
e 197 333
e 197 335
e 197 337
e 197 338
e 197 346
e 197 349
e 197 350
e 197 351
e 197 352
e 197 364
e 197 367
e 197 368
e 197 371
e 197 380
e 197 382
e 197 383
e 197 386
e 197 387
e 197 390
e 197 394
e 197 399
e 197 400
e 197 405
e 197 407
e 197 409
e 197 410
e 197 412
e 197 416
e 197 419
e 197 420
e 197 421
e 197 422
e 197 426
e 197 429
e 197 430
e 197 435
e 197 444
e 197 446
e 197 453
e 197 455
e 197 457
e 197 460
e 197 463
e 197 464
e 197 468
e 197 472
e 197 474
e 197 476
e 197 478
e 197 480
e 197 481
e 197 483
e 197 484
e 197 490
e 197 491
e 197 493
e 197 494
e 197 495
e 197 496
e 197 500
e 198 200
e 198 208
e 198 209
e 198 210
e 198 212
e 198 213
e 198 214
e 198 215
e 198 220
e 198 221
e 198 223
e 198 225
e 198 226
e 198 227
e 198 229
e 198 232
e 198 235
e 198 237
e 198 240
e 198 247
e 198 250
e 198 256
e 198 257
e 198 261
e 198 263
e 198 266
e 198 271
e 198 272
e 198 275
e 198 276
e 198 277
e 198 279
e 198 282
e 198 285
e 198 288
e 198 291
e 198 296
e 198 297
e 198 307
e 198 308
e 198 311
e 198 312
e 198 318
e 198 323
e 198 329
e 198 331
e 198 332
e 198 334
e 198 338
e 198 343
e 198 344
e 198 347
e 198 350
e 198 354
e 198 362
e 198 368
e 198 370
e 198 371
e 198 375
e 198 376
e 198 391
e 198 394
e 198 396
e 198 397
e 198 398
e 198 400
e 198 402
e 198 406
e 198 410
e 198 411
e 198 412
e 198 419
e 198 423
e 198 425
e 198 432
e 198 434
e 198 446
e 198 449
e 198 450
e 198 463
e 198 465
e 198 466
e 198 467
e 198 468
e 198 471
e 198 474
e 198 475
e 198 476
e 198 478
e 198 481
e 198 482
e 198 485
e 198 489
e 198 496
e 198 500
e 199 212
e 199 213
e 199 217
e 199 219
e 199 220
e 199 221
e 199 226
e 199 228
e 199 234
e 199 235
e 199 236
e 199 242
e 199 245
e 199 250
e 199 253
e 199 258
e 199 259
e 199 264
e 199 265
e 199 274
e 199 275
e 199 276
e 199 280
e 199 282
e 199 284
e 199 285
e 199 286
e 199 287
e 199 288
e 199 297
e 199 298
e 199 302
e 199 303
e 199 304
e 199 309
e 199 310
e 199 311
e 199 313
e 199 327
e 199 329
e 199 331
e 199 339
e 199 346
e 199 347
e 199 349
e 199 354
e 199 356
e 199 370
e 199 371
e 199 372
e 199 376
e 199 380
e 199 382
e 199 396
e 199 398
e 199 399
e 199 409
e 199 411
e 199 413
e 199 414
e 199 415
e 199 418
e 199 419
e 199 423
e 199 428
e 199 430
e 199 434
e 199 436
e 199 449
e 199 450
e 199 451
e 199 454
e 199 457
e 199 458
e 199 461
e 199 462
e 199 465
e 199 467
e 199 469
e 199 480
e 199 488
e 199 494
e 199 495
e 199 497
e 199 499
e 200 201
e 200 206
e 200 207
e 200 208
e 200 212
e 200 217
e 200 219
e 200 220
e 200 223
e 200 224
e 200 226
e 200 227
e 200 229
e 200 230
e 200 234
e 200 235
e 200 237
e 200 240
e 200 244
e 200 246
e 200 248
e 200 251
e 200 254
e 200 269
e 200 271
e 200 277
e 200 278
e 200 281
e 200 283
e 200 285
e 200 293
e 200 303
e 200 306
e 200 307
e 200 308
e 200 310
e 200 317
e 200 318
e 200 323
e 200 325
e 200 326
e 200 327
e 200 332
e 200 338
e 200 341
e 200 346
e 200 353
e 200 359
e 200 364
e 200 365
e 200 368
e 200 373
e 200 375
e 200 378
e 200 387
e 200 390
e 200 394
e 200 397
e 200 398
e 200 402
e 200 403
e 200 406
e 200 409
e 200 415
e 200 416
e 200 417
e 200 420
e 200 424
e 200 426
e 200 428
e 200 431
e 200 432
e 200 433
e 200 435
e 200 437
e 200 439
e 200 443
e 200 445
e 200 448
e 200 450
e 200 452
e 200 454
e 200 455
e 200 459
e 200 463
e 200 469
e 200 472
e 200 475
e 200 478
e 200 480
e 200 482
e 200 484
e 200 497
e 201 205
e 201 206
e 201 231
e 201 239
e 201 241
e 201 242
e 201 243
e 201 244
e 201 249
e 201 250
e 201 251
e 201 254
e 201 255
e 201 263
e 201 264
e 201 265
e 201 267
e 201 270
e 201 278
e 201 280
e 201 283
e 201 286
e 201 297
e 201 300
e 201 301
e 201 303
e 201 304
e 201 306
e 201 308
e 201 310
e 201 315
e 201 325
e 201 329
e 201 331
e 201 332
e 201 335
e 201 338
e 201 342
e 201 343
e 201 344
e 201 345
e 201 350
e 201 353
e 201 355
e 201 367
e 201 368
e 201 370
e 201 376
e 201 378
e 201 380
e 201 383
e 201 384
e 201 385
e 201 386
e 201 387
e 201 394
e 201 396
e 201 400
e 201 402
e 201 406
e 201 407
e 201 408
e 201 413
e 201 416
e 201 419
e 201 420
e 201 423
e 201 428
e 201 430
e 201 431
e 201 432
e 201 433
e 201 436
e 201 437
e 201 438
e 201 441
e 201 444
e 201 449
e 201 454
e 201 457
e 201 459
e 201 465
e 201 466
e 201 468
e 201 471
e 201 474
e 201 476
e 201 483
e 201 490
e 202 203
e 202 206
e 202 208
e 202 209
e 202 214
e 202 218
e 202 220
e 202 223
e 202 226
e 202 228
e 202 231
e 202 239
e 202 242
e 202 251
e 202 253
e 202 255
e 202 256
e 202 266
e 202 273
e 202 274
e 202 279
e 202 281
e 202 286
e 202 291
e 202 294
e 202 299
e 202 301
e 202 306
e 202 314
e 202 316
e 202 318
e 202 320
e 202 321
e 202 329
e 202 331
e 202 336
e 202 337
e 202 340
e 202 344
e 202 348
e 202 355
e 202 364
e 202 365
e 202 367
e 202 370
e 202 372
e 202 374
e 202 382
e 202 383
e 202 384
e 202 389
e 202 395
e 202 407
e 202 409
e 202 417
e 202 421
e 202 422
e 202 423
e 202 426
e 202 431
e 202 436
e 202 437
e 202 441
e 202 444
e 202 445
e 202 446
e 202 447
e 202 456
e 202 458
e 202 459
e 202 461
e 202 465
e 202 471
e 202 477
e 202 478
e 202 480
e 202 481
e 202 485
e 202 490
e 202 491
e 202 492
e 202 493
e 202 495
e 202 496
e 202 498
e 202 499
e 203 219
e 203 225
e 203 231
e 203 240
e 203 241
e 203 243
e 203 244
e 203 245
e 203 246
e 203 249
e 203 252
e 203 255
e 203 257
e 203 272
e 203 273
e 203 274
e 203 279
e 203 282
e 203 283
e 203 286
e 203 288
e 203 291
e 203 296
e 203 306
e 203 307
e 203 319
e 203 322
e 203 324
e 203 325
e 203 327
e 203 328
e 203 329
e 203 331
e 203 335
e 203 343
e 203 344
e 203 348
e 203 352
e 203 353
e 203 355
e 203 357
e 203 361
e 203 365
e 203 368
e 203 371
e 203 372
e 203 374
e 203 375
e 203 378
e 203 382
e 203 383
e 203 387
e 203 388
e 203 389
e 203 391
e 203 392
e 203 395
e 203 401
e 203 403
e 203 405
e 203 409
e 203 413
e 203 414
e 203 427
e 203 430
e 203 431
e 203 432
e 203 438
e 203 439
e 203 440
e 203 442
e 203 447
e 203 449
e 203 456
e 203 459
e 203 460
e 203 473
e 203 474
e 203 478
e 203 481
e 203 483
e 203 488
e 203 490
e 203 491
e 203 492
e 203 494
e 203 496
e 203 498
e 204 207
e 204 208
e 204 210
e 204 216
e 204 220
e 204 225
e 204 227
e 204 232
e 204 237
e 204 238
e 204 246
e 204 257
e 204 258
e 204 260
e 204 261
e 204 263
e 204 268
e 204 269
e 204 272
e 204 274
e 204 277
e 204 281
e 204 282
e 204 286
e 204 293
e 204 294
e 204 295
e 204 296
e 204 304
e 204 307
e 204 310
e 204 311
e 204 312
e 204 313
e 204 314
e 204 322
e 204 323
e 204 325
e 204 326
e 204 327
e 204 328
e 204 335
e 204 336
e 204 339
e 204 342
e 204 346
e 204 351
e 204 355
e 204 356
e 204 366
e 204 367
e 204 369
e 204 372
e 204 375
e 204 386
e 204 387
e 204 389
e 204 395
e 204 399
e 204 402
e 204 404
e 204 408
e 204 411
e 204 420
e 204 424
e 204 427
e 204 428
e 204 437
e 204 446
e 204 458
e 204 460
e 204 467
e 204 469
e 204 472
e 204 476
e 204 478
e 204 480
e 204 481
e 204 483
e 204 485
e 204 493
e 204 499
e 204 500
e 205 207
e 205 211
e 205 216
e 205 220
e 205 221
e 205 224
e 205 225
e 205 226
e 205 227
e 205 228
e 205 231
e 205 234
e 205 238
e 205 240
e 205 249
e 205 251
e 205 275
e 205 280
e 205 288
e 205 290
e 205 291
e 205 293
e 205 298
e 205 302
e 205 305
e 205 307
e 205 310
e 205 313
e 205 314
e 205 316
e 205 317
e 205 319
e 205 325
e 205 326
e 205 332
e 205 345
e 205 348
e 205 349
e 205 351
e 205 353
e 205 361
e 205 362
e 205 366
e 205 367
e 205 369
e 205 370
e 205 378
e 205 379
e 205 381
e 205 382
e 205 383
e 205 385
e 205 386
e 205 387
e 205 389
e 205 394
e 205 395
e 205 396
e 205 397
e 205 401
e 205 407
e 205 408
e 205 414
e 205 416
e 205 421
e 205 424
e 205 428
e 205 432
e 205 438
e 205 439
e 205 440
e 205 442
e 205 444
e 205 457
e 205 461
e 205 466
e 205 467
e 205 468
e 205 476
e 205 480
e 205 482
e 205 486
e 205 487
e 205 494
e 205 496
e 205 498
e 206 210
e 206 216
e 206 218
e 206 219
e 206 220
e 206 222
e 206 224
e 206 229
e 206 230
e 206 234
e 206 235
e 206 240
e 206 243
e 206 245
e 206 248
e 206 249
e 206 252
e 206 254
e 206 255
e 206 257
e 206 261
e 206 262
e 206 269
e 206 271
e 206 277
e 206 279
e 206 282
e 206 283
e 206 285
e 206 288
e 206 295
e 206 297
e 206 299
e 206 301
e 206 302
e 206 305
e 206 307
e 206 309
e 206 313
e 206 314
e 206 315
e 206 316
e 206 318
e 206 319
e 206 321
e 206 323
e 206 325
e 206 328
e 206 329
e 206 330
e 206 333
e 206 335
e 206 337
e 206 339
e 206 345
e 206 346
e 206 348
e 206 349
e 206 360
e 206 371
e 206 377
e 206 378
e 206 380
e 206 383
e 206 392
e 206 393
e 206 395
e 206 397
e 206 400
e 206 401
e 206 403
e 206 406
e 206 409
e 206 412
e 206 413
e 206 419
e 206 420
e 206 421
e 206 425
e 206 426
e 206 427
e 206 430
e 206 434
e 206 439
e 206 440
e 206 443
e 206 445
e 206 448
e 206 450
e 206 452
e 206 453
e 206 458
e 206 461
e 206 465
e 206 470
e 206 473
e 206 474
e 206 484
e 206 486
e 206 489
e 206 493
e 206 495
e 206 496
e 207 212
e 207 222
e 207 227
e 207 228
e 207 230
e 207 232
e 207 245
e 207 246
e 207 253
e 207 254
e 207 257
e 207 259
e 207 264
e 207 265
e 207 267
e 207 269
e 207 270
e 207 272
e 207 281
e 207 282
e 207 291
e 207 294
e 207 301
e 207 302
e 207 307
e 207 308
e 207 312
e 207 313
e 207 314
e 207 315
e 207 318
e 207 321
e 207 323
e 207 326
e 207 327
e 207 331
e 207 338
e 207 342
e 207 348
e 207 352
e 207 353
e 207 356
e 207 360
e 207 362
e 207 370
e 207 371
e 207 374
e 207 376
e 207 380
e 207 382
e 207 388
e 207 396
e 207 397
e 207 398
e 207 399
e 207 400
e 207 402
e 207 405
e 207 406
e 207 425
e 207 426
e 207 430
e 207 437
e 207 442
e 207 444
e 207 448
e 207 452
e 207 455
e 207 461
e 207 468
e 207 477
e 207 478
e 207 479
e 207 482
e 207 484
e 207 489
e 207 494
e 207 499
e 207 500
e 208 209
e 208 214
e 208 219
e 208 220
e 208 228
e 208 230
e 208 233
e 208 234
e 208 239
e 208 240
e 208 250
e 208 252
e 208 258
e 208 265
e 208 267
e 208 272
e 208 278
e 208 286
e 208 287
e 208 290
e 208 295
e 208 299
e 208 304
e 208 320
e 208 323
e 208 328
e 208 329
e 208 331
e 208 335
e 208 336
e 208 337
e 208 343
e 208 344
e 208 348
e 208 350
e 208 351
e 208 356
e 208 357
e 208 359
e 208 367
e 208 368
e 208 385
e 208 386
e 208 393
e 208 398
e 208 402
e 208 405
e 208 408
e 208 410
e 208 415
e 208 419
e 208 424
e 208 428
e 208 431
e 208 434
e 208 436
e 208 438
e 208 439
e 208 446
e 208 448
e 208 450
e 208 453
e 208 456
e 208 460
e 208 461
e 208 462
e 208 469
e 208 476
e 208 477
e 208 481
e 208 493
e 208 495
e 208 499
e 208 500
e 209 211
e 209 212
e 209 218
e 209 224
e 209 225
e 209 229
e 209 234
e 209 236
e 209 238
e 209 241
e 209 249
e 209 251
e 209 256
e 209 257
e 209 260
e 209 262
e 209 263
e 209 265
e 209 266
e 209 267
e 209 269
e 209 270
e 209 271
e 209 276
e 209 279
e 209 283
e 209 286
e 209 287
e 209 291
e 209 294
e 209 295
e 209 298
e 209 299
e 209 300
e 209 302
e 209 303
e 209 305
e 209 306
e 209 308
e 209 312
e 209 316
e 209 320
e 209 321
e 209 324
e 209 326
e 209 327
e 209 330
e 209 335
e 209 336
e 209 337
e 209 339
e 209 349
e 209 350
e 209 351
e 209 352
e 209 362
e 209 364
e 209 368
e 209 369
e 209 378
e 209 382
e 209 383
e 209 387
e 209 388
e 209 389
e 209 395
e 209 397
e 209 402
e 209 403
e 209 405
e 209 406
e 209 412
e 209 419
e 209 421
e 209 425
e 209 429
e 209 432
e 209 434
e 209 440
e 209 441
e 209 443
e 209 444
e 209 446
e 209 450
e 209 451
e 209 452
e 209 454
e 209 455
e 209 457
e 209 458
e 209 462
e 209 466
e 209 467
e 209 469
e 209 472
e 209 474
e 209 480
e 209 481
e 209 483
e 209 491
e 209 494
e 210 211
e 210 214
e 210 215
e 210 217
e 210 218
e 210 224
e 210 229
e 210 231
e 210 233
e 210 234
e 210 235
e 210 243
e 210 246
e 210 247
e 210 252
e 210 254
e 210 255
e 210 256
e 210 258
e 210 260
e 210 261
e 210 262
e 210 265
e 210 267
e 210 269
e 210 272
e 210 283
e 210 286
e 210 287
e 210 288
e 210 289
e 210 290
e 210 295
e 210 296
e 210 301
e 210 302
e 210 303
e 210 304
e 210 307
e 210 310
e 210 311
e 210 320
e 210 323
e 210 327
e 210 337
e 210 340
e 210 342
e 210 344
e 210 349
e 210 352
e 210 356
e 210 364
e 210 373
e 210 375
e 210 378
e 210 380
e 210 381
e 210 389
e 210 393
e 210 396
e 210 397
e 210 398
e 210 399
e 210 400
e 210 404
e 210 406
e 210 408
e 210 410
e 210 424
e 210 427
e 210 431
e 210 432
e 210 433
e 210 434
e 210 437
e 210 442
e 210 443
e 210 445
e 210 446
e 210 453
e 210 454
e 210 457
e 210 458
e 210 459
e 210 460
e 210 464
e 210 466
e 210 467
e 210 484
e 210 487
e 210 488
e 210 491
e 210 492
e 210 495
e 210 500
e 211 212
e 211 218
e 211 223
e 211 224
e 211 225
e 211 228
e 211 230
e 211 232
e 211 234
e 211 244
e 211 248
e 211 252
e 211 253
e 211 256
e 211 258
e 211 259
e 211 268
e 211 270
e 211 272
e 211 273
e 211 275
e 211 279
e 211 281
e 211 285
e 211 289
e 211 295
e 211 306
e 211 307
e 211 310
e 211 311
e 211 314
e 211 320
e 211 323
e 211 331
e 211 344
e 211 345
e 211 346
e 211 351
e 211 355
e 211 358
e 211 359
e 211 362
e 211 363
e 211 366
e 211 371
e 211 374
e 211 376
e 211 377
e 211 379
e 211 380
e 211 389
e 211 396
e 211 403
e 211 405
e 211 419
e 211 424
e 211 426
e 211 435
e 211 441
e 211 443
e 211 445
e 211 447
e 211 449
e 211 451
e 211 452
e 211 453
e 211 455
e 211 457
e 211 458
e 211 464
e 211 465
e 211 467
e 211 468
e 211 470
e 211 475
e 211 479
e 211 480
e 211 482
e 211 483
e 211 489
e 211 492
e 211 493
e 211 498
e 212 213
e 212 230
e 212 231
e 212 239
e 212 241
e 212 247
e 212 254
e 212 256
e 212 259
e 212 263
e 212 264
e 212 266
e 212 268
e 212 270
e 212 271
e 212 275
e 212 280
e 212 282
e 212 285
e 212 287
e 212 292
e 212 299
e 212 303
e 212 304
e 212 307
e 212 308
e 212 309
e 212 311
e 212 312
e 212 313
e 212 315
e 212 318
e 212 330
e 212 334
e 212 338
e 212 341
e 212 345
e 212 347
e 212 352
e 212 358
e 212 366
e 212 369
e 212 372
e 212 373
e 212 376
e 212 383
e 212 385
e 212 386
e 212 391
e 212 394
e 212 401
e 212 408
e 212 409
e 212 414
e 212 418
e 212 420
e 212 426
e 212 428
e 212 433
e 212 436
e 212 440
e 212 442
e 212 443
e 212 450
e 212 453
e 212 454
e 212 457
e 212 461
e 212 463
e 212 464
e 212 469
e 212 473
e 212 477
e 212 478
e 212 480
e 212 481
e 212 483
e 212 488
e 213 224
e 213 225
e 213 228
e 213 232
e 213 237
e 213 243
e 213 244
e 213 252
e 213 253
e 213 262
e 213 264
e 213 266
e 213 270
e 213 272
e 213 282
e 213 285
e 213 294
e 213 297
e 213 303
e 213 307
e 213 310
e 213 320
e 213 322
e 213 323
e 213 325
e 213 326
e 213 327
e 213 329
e 213 333
e 213 336
e 213 340
e 213 347
e 213 349
e 213 351
e 213 352
e 213 354
e 213 357
e 213 358
e 213 359
e 213 362
e 213 364
e 213 376
e 213 377
e 213 381
e 213 383
e 213 388
e 213 389
e 213 393
e 213 394
e 213 397
e 213 402
e 213 405
e 213 407
e 213 409
e 213 412
e 213 419
e 213 422
e 213 424
e 213 427
e 213 429
e 213 430
e 213 431
e 213 433
e 213 437
e 213 438
e 213 439
e 213 444
e 213 445
e 213 446
e 213 447
e 213 450
e 213 460
e 213 463
e 213 464
e 213 465
e 213 469
e 213 471
e 213 474
e 213 479
e 213 485
e 213 487
e 213 489
e 213 490
e 213 494
e 213 496
e 213 497
e 214 215
e 214 217
e 214 220
e 214 224
e 214 225
e 214 227
e 214 235
e 214 236
e 214 241
e 214 250
e 214 251
e 214 257
e 214 260
e 214 267
e 214 270
e 214 273
e 214 277
e 214 278
e 214 279
e 214 280
e 214 282
e 214 298
e 214 304
e 214 307
e 214 310
e 214 312
e 214 314
e 214 315
e 214 316
e 214 318
e 214 320
e 214 322
e 214 325
e 214 329
e 214 331
e 214 337
e 214 338
e 214 339
e 214 344
e 214 347
e 214 350
e 214 360
e 214 362
e 214 367
e 214 380
e 214 384
e 214 388
e 214 390
e 214 392
e 214 393
e 214 395
e 214 401
e 214 409
e 214 411
e 214 412
e 214 418
e 214 419
e 214 422
e 214 424
e 214 425
e 214 429
e 214 431
e 214 432
e 214 433
e 214 436
e 214 438
e 214 443
e 214 444
e 214 451
e 214 452
e 214 453
e 214 455
e 214 456
e 214 460
e 214 461
e 214 468
e 214 471
e 214 484
e 214 487
e 214 489
e 214 499
e 215 218
e 215 220
e 215 224
e 215 229
e 215 230
e 215 233
e 215 234
e 215 239
e 215 241
e 215 247
e 215 256
e 215 260
e 215 262
e 215 266
e 215 273
e 215 274
e 215 276
e 215 277
e 215 282
e 215 284
e 215 288
e 215 291
e 215 293
e 215 294
e 215 297
e 215 298
e 215 302
e 215 305
e 215 306
e 215 311
e 215 312
e 215 316
e 215 317
e 215 318
e 215 319
e 215 324
e 215 327
e 215 331
e 215 333
e 215 336
e 215 344
e 215 356
e 215 358
e 215 360
e 215 366
e 215 371
e 215 374
e 215 375
e 215 383
e 215 384
e 215 385
e 215 386
e 215 388
e 215 392
e 215 398
e 215 400
e 215 402
e 215 404
e 215 409
e 215 416
e 215 417
e 215 419
e 215 421
e 215 423
e 215 427
e 215 431
e 215 435
e 215 443
e 215 444
e 215 445
e 215 454
e 215 456
e 215 457
e 215 470
e 215 472
e 215 473
e 215 475
e 215 477
e 215 478
e 215 482
e 215 485
e 215 486
e 215 488
e 215 491
e 215 492
e 215 493
e 215 494
e 216 217
e 216 226
e 216 228
e 216 229
e 216 230
e 216 243
e 216 245
e 216 253
e 216 272
e 216 274
e 216 277
e 216 278
e 216 289
e 216 296
e 216 297
e 216 300
e 216 304
e 216 305
e 216 306
e 216 309
e 216 312
e 216 315
e 216 319
e 216 323
e 216 333
e 216 334
e 216 339
e 216 345
e 216 347
e 216 350
e 216 353
e 216 359
e 216 367
e 216 368
e 216 369
e 216 370
e 216 372
e 216 376
e 216 380
e 216 382
e 216 386
e 216 388
e 216 390
e 216 391
e 216 399
e 216 405
e 216 407
e 216 412
e 216 420
e 216 421
e 216 424
e 216 428
e 216 431
e 216 435
e 216 436
e 216 437
e 216 439
e 216 440
e 216 441
e 216 442
e 216 443
e 216 446
e 216 447
e 216 452
e 216 455
e 216 457
e 216 462
e 216 466
e 216 467
e 216 477
e 216 480
e 216 486
e 216 489
e 216 491
e 216 496
e 216 500
e 217 220
e 217 223
e 217 226
e 217 227
e 217 228
e 217 232
e 217 233
e 217 236
e 217 240
e 217 244
e 217 245
e 217 246
e 217 248
e 217 249
e 217 256
e 217 268
e 217 269
e 217 271
e 217 279
e 217 285
e 217 290
e 217 291
e 217 294
e 217 296
e 217 298
e 217 299
e 217 300
e 217 302
e 217 306
e 217 307
e 217 308
e 217 312
e 217 313
e 217 318
e 217 319
e 217 321
e 217 330
e 217 332
e 217 333
e 217 335
e 217 336
e 217 337
e 217 339
e 217 341
e 217 344
e 217 347
e 217 348
e 217 351
e 217 355
e 217 356
e 217 364
e 217 365
e 217 366
e 217 367
e 217 368
e 217 374
e 217 376
e 217 378
e 217 381
e 217 382
e 217 383
e 217 384
e 217 385
e 217 386
e 217 387
e 217 388
e 217 390
e 217 392
e 217 398
e 217 404
e 217 406
e 217 411
e 217 414
e 217 415
e 217 416
e 217 418
e 217 419
e 217 420
e 217 424
e 217 428
e 217 433
e 217 437
e 217 442
e 217 443
e 217 446
e 217 456
e 217 457
e 217 464
e 217 467
e 217 469
e 217 474
e 217 475
e 217 476
e 217 477
e 217 478
e 217 497
e 217 498
e 217 500
e 218 220
e 218 222
e 218 228
e 218 232
e 218 234
e 218 240
e 218 245
e 218 246
e 218 258
e 218 260
e 218 265
e 218 268
e 218 270
e 218 276
e 218 277
e 218 280
e 218 283
e 218 285
e 218 290
e 218 292
e 218 298
e 218 304
e 218 307
e 218 308
e 218 310
e 218 314
e 218 315
e 218 316
e 218 317
e 218 318
e 218 323
e 218 324
e 218 326
e 218 329
e 218 334
e 218 335
e 218 336
e 218 340
e 218 342
e 218 345
e 218 346
e 218 350
e 218 355
e 218 359
e 218 360
e 218 361
e 218 365
e 218 367
e 218 370
e 218 372
e 218 383
e 218 384
e 218 391
e 218 392
e 218 404
e 218 406
e 218 409
e 218 421
e 218 422
e 218 427
e 218 428
e 218 437
e 218 438
e 218 439
e 218 440
e 218 446
e 218 448
e 218 452
e 218 455
e 218 457
e 218 470
e 218 472
e 218 473
e 218 479
e 218 481
e 218 485
e 218 487
e 218 493
e 218 499
e 219 220
e 219 221
e 219 225
e 219 226
e 219 234
e 219 235
e 219 236
e 219 239
e 219 240
e 219 241
e 219 243
e 219 250
e 219 253
e 219 256
e 219 265
e 219 273
e 219 274
e 219 275
e 219 277
e 219 283
e 219 286
e 219 287
e 219 289
e 219 291
e 219 293
e 219 296
e 219 298
e 219 301
e 219 312
e 219 313
e 219 315
e 219 321
e 219 329
e 219 330
e 219 331
e 219 335
e 219 347
e 219 349
e 219 363
e 219 370
e 219 376
e 219 381
e 219 382
e 219 385
e 219 389
e 219 394
e 219 398
e 219 403
e 219 404
e 219 407
e 219 408
e 219 410
e 219 414
e 219 419
e 219 421
e 219 425
e 219 427
e 219 434
e 219 436
e 219 437
e 219 439
e 219 446
e 219 450
e 219 453
e 219 454
e 219 456
e 219 458
e 219 463
e 219 465
e 219 466
e 219 471
e 219 474
e 219 476
e 219 477
e 219 481
e 219 484
e 219 491
e 219 494
e 219 495
e 219 496
e 219 499
e 219 500
e 220 221
e 220 222
e 220 223
e 220 225
e 220 227
e 220 230
e 220 232
e 220 236
e 220 241
e 220 247
e 220 248
e 220 249
e 220 260
e 220 263
e 220 264
e 220 269
e 220 277
e 220 280
e 220 282
e 220 283
e 220 287
e 220 293
e 220 294
e 220 297
e 220 298
e 220 306
e 220 307
e 220 311
e 220 312
e 220 313
e 220 316
e 220 319
e 220 323
e 220 324
e 220 328
e 220 329
e 220 334
e 220 336
e 220 338
e 220 349
e 220 354
e 220 361
e 220 363
e 220 370
e 220 371
e 220 374
e 220 375
e 220 377
e 220 388
e 220 391
e 220 395
e 220 397
e 220 409
e 220 411
e 220 417
e 220 421
e 220 426
e 220 427
e 220 432
e 220 437
e 220 441
e 220 446
e 220 456
e 220 459
e 220 462
e 220 466
e 220 468
e 220 474
e 220 477
e 220 478
e 220 482
e 220 483
e 220 484
e 220 491
e 220 495
e 221 223
e 221 224
e 221 226
e 221 227
e 221 230
e 221 238
e 221 240
e 221 244
e 221 251
e 221 253
e 221 254
e 221 255
e 221 263
e 221 267
e 221 268
e 221 271
e 221 272
e 221 274
e 221 277
e 221 279
e 221 280
e 221 286
e 221 287
e 221 288
e 221 290
e 221 296
e 221 302
e 221 304
e 221 310
e 221 314
e 221 315
e 221 316
e 221 318
e 221 319
e 221 323
e 221 336
e 221 340
e 221 342
e 221 348
e 221 351
e 221 356
e 221 363
e 221 364
e 221 370
e 221 374
e 221 375
e 221 377
e 221 378
e 221 380
e 221 384
e 221 389
e 221 390
e 221 392
e 221 393
e 221 399
e 221 408
e 221 415
e 221 416
e 221 420
e 221 422
e 221 423
e 221 424
e 221 426
e 221 431
e 221 434
e 221 436
e 221 442
e 221 446
e 221 447
e 221 452
e 221 454
e 221 462
e 221 465
e 221 467
e 221 471
e 221 476
e 221 483
e 221 485
e 221 490
e 221 493
e 221 497
e 222 223
e 222 224
e 222 225
e 222 226
e 222 228
e 222 229
e 222 231
e 222 233
e 222 235
e 222 237
e 222 242
e 222 243
e 222 244
e 222 250
e 222 251
e 222 252
e 222 253
e 222 256
e 222 257
e 222 264
e 222 265
e 222 266
e 222 272
e 222 285
e 222 288
e 222 290
e 222 292
e 222 294
e 222 295
e 222 297
e 222 299
e 222 300
e 222 303
e 222 307
e 222 308
e 222 312
e 222 315
e 222 316
e 222 321
e 222 332
e 222 336
e 222 338
e 222 341
e 222 342
e 222 353
e 222 354
e 222 356
e 222 363
e 222 364
e 222 375
e 222 377
e 222 385
e 222 389
e 222 394
e 222 395
e 222 396
e 222 398
e 222 401
e 222 407
e 222 409
e 222 411
e 222 416
e 222 417
e 222 418
e 222 420
e 222 433
e 222 436
e 222 438
e 222 443
e 222 446
e 222 447
e 222 448
e 222 453
e 222 454
e 222 455
e 222 462
e 222 464
e 222 466
e 222 474
e 222 475
e 222 476
e 222 477
e 222 485
e 222 486
e 222 487
e 222 492
e 222 497
e 222 500
e 223 225
e 223 229
e 223 231
e 223 237
e 223 240
e 223 243
e 223 246
e 223 247
e 223 255
e 223 256
e 223 257
e 223 258
e 223 269
e 223 270
e 223 272
e 223 273
e 223 274
e 223 283
e 223 287
e 223 289
e 223 296
e 223 308
e 223 309
e 223 313
e 223 314
e 223 319
e 223 325
e 223 335
e 223 336
e 223 348
e 223 353
e 223 357
e 223 358
e 223 361
e 223 363
e 223 364
e 223 371
e 223 375
e 223 376
e 223 378
e 223 380
e 223 384
e 223 385
e 223 388
e 223 395
e 223 409
e 223 414
e 223 418
e 223 423
e 223 424
e 223 425
e 223 426
e 223 430
e 223 432
e 223 434
e 223 439
e 223 440
e 223 441
e 223 442
e 223 444
e 223 448
e 223 454
e 223 455
e 223 458
e 223 459
e 223 461
e 223 466
e 223 468
e 223 469
e 223 471
e 223 472
e 223 479
e 223 482
e 223 484
e 223 485
e 223 489
e 223 490
e 223 491
e 223 494
e 223 495
e 224 228
e 224 229
e 224 231
e 224 235
e 224 237
e 224 241
e 224 244
e 224 250
e 224 251
e 224 253
e 224 255
e 224 257
e 224 260
e 224 263
e 224 266
e 224 267
e 224 278
e 224 279
e 224 280
e 224 282
e 224 283
e 224 292
e 224 294
e 224 302
e 224 308
e 224 309
e 224 311
e 224 312
e 224 316
e 224 324
e 224 328
e 224 332
e 224 333
e 224 339
e 224 344
e 224 349
e 224 351
e 224 353
e 224 356
e 224 365
e 224 366
e 224 369
e 224 376
e 224 386
e 224 387
e 224 390
e 224 395
e 224 397
e 224 398
e 224 401
e 224 403
e 224 404
e 224 407
e 224 409
e 224 412
e 224 416
e 224 417
e 224 419
e 224 420
e 224 422
e 224 425
e 224 426
e 224 427
e 224 429
e 224 437
e 224 444
e 224 451
e 224 455
e 224 458
e 224 460
e 224 461
e 224 463
e 224 467
e 224 472
e 224 475
e 224 478
e 224 480
e 224 482
e 224 483
e 224 495
e 224 497
e 225 228
e 225 230
e 225 231
e 225 235
e 225 242
e 225 247
e 225 248
e 225 250
e 225 254
e 225 255
e 225 256
e 225 258
e 225 260
e 225 261
e 225 264
e 225 266
e 225 269
e 225 270
e 225 271
e 225 274
e 225 280
e 225 282
e 225 284
e 225 288
e 225 289
e 225 293
e 225 295
e 225 296
e 225 297
e 225 298
e 225 304
e 225 305
e 225 312
e 225 316
e 225 324
e 225 325
e 225 326
e 225 328
e 225 330
e 225 333
e 225 336
e 225 339
e 225 340
e 225 342
e 225 343
e 225 344
e 225 349
e 225 351
e 225 352
e 225 355
e 225 360
e 225 361
e 225 362
e 225 363
e 225 364
e 225 368
e 225 377
e 225 379
e 225 380
e 225 385
e 225 386
e 225 389
e 225 391
e 225 392
e 225 395
e 225 396
e 225 404
e 225 406
e 225 409
e 225 411
e 225 413
e 225 414
e 225 419
e 225 421
e 225 422
e 225 423
e 225 424
e 225 430
e 225 434
e 225 436
e 225 446
e 225 447
e 225 455
e 225 456
e 225 464
e 225 469
e 225 470
e 225 472
e 225 473
e 225 478
e 225 481
e 225 483
e 225 484
e 225 485
e 225 492
e 225 497
e 225 500
e 226 230
e 226 231
e 226 232
e 226 240
e 226 247
e 226 248
e 226 249
e 226 250
e 226 257
e 226 258
e 226 275
e 226 280
e 226 282
e 226 287
e 226 289
e 226 290
e 226 295
e 226 296
e 226 297
e 226 298
e 226 301
e 226 307
e 226 308
e 226 316
e 226 324
e 226 325
e 226 327
e 226 331
e 226 338
e 226 339
e 226 340
e 226 343
e 226 345
e 226 354
e 226 355
e 226 356
e 226 357
e 226 358
e 226 359
e 226 366
e 226 368
e 226 371
e 226 373
e 226 379
e 226 385
e 226 387
e 226 389
e 226 392
e 226 393
e 226 395
e 226 397
e 226 398
e 226 402
e 226 407
e 226 411
e 226 412
e 226 416
e 226 417
e 226 418
e 226 419
e 226 426
e 226 429
e 226 432
e 226 446
e 226 448
e 226 454
e 226 456
e 226 460
e 226 469
e 226 472
e 226 476
e 226 477
e 226 480
e 226 486
e 226 490
e 226 494
e 226 496
e 226 498
e 227 233
e 227 238
e 227 239
e 227 245
e 227 247
e 227 248
e 227 252
e 227 253
e 227 254
e 227 256
e 227 257
e 227 259
e 227 262
e 227 265
e 227 267
e 227 268
e 227 269
e 227 274
e 227 279
e 227 286
e 227 288
e 227 289
e 227 290
e 227 291
e 227 292
e 227 301
e 227 305
e 227 307
e 227 308
e 227 309
e 227 311
e 227 315
e 227 320
e 227 327
e 227 328
e 227 329
e 227 331
e 227 335
e 227 337
e 227 342
e 227 347
e 227 351
e 227 360
e 227 362
e 227 363
e 227 366
e 227 369
e 227 371
e 227 372
e 227 373
e 227 377
e 227 380
e 227 384
e 227 385
e 227 387
e 227 388
e 227 393
e 227 394
e 227 396
e 227 399
e 227 401
e 227 404
e 227 407
e 227 412
e 227 413
e 227 414
e 227 419
e 227 422
e 227 423
e 227 426
e 227 428
e 227 429
e 227 432
e 227 439
e 227 449
e 227 452
e 227 456
e 227 458
e 227 460
e 227 461
e 227 462
e 227 463
e 227 464
e 227 465
e 227 466
e 227 469
e 227 471
e 227 472
e 227 474
e 227 475
e 227 476
e 227 478
e 227 480
e 227 484
e 227 485
e 227 487
e 227 490
e 227 491
e 227 494
e 227 496
e 227 497
e 227 498
e 227 499
e 228 233
e 228 234
e 228 240
e 228 243
e 228 245
e 228 246
e 228 248
e 228 253
e 228 256
e 228 259
e 228 263
e 228 264
e 228 265
e 228 267
e 228 268
e 228 270
e 228 271
e 228 274
e 228 277
e 228 279
e 228 284
e 228 287
e 228 290
e 228 292
e 228 295
e 228 308
e 228 311
e 228 314
e 228 319
e 228 320
e 228 326
e 228 328
e 228 329
e 228 330
e 228 331
e 228 333
e 228 335
e 228 346
e 228 348
e 228 350
e 228 353
e 228 356
e 228 358
e 228 359
e 228 365
e 228 366
e 228 367
e 228 372
e 228 373
e 228 376
e 228 379
e 228 386
e 228 389
e 228 390
e 228 411
e 228 415
e 228 423
e 228 426
e 228 428
e 228 434
e 228 436
e 228 444
e 228 458
e 228 460
e 228 465
e 228 467
e 228 470
e 228 471
e 228 477
e 228 480
e 228 483
e 228 489
e 228 496
e 228 499
e 228 500
e 229 231
e 229 232
e 229 240
e 229 242
e 229 243
e 229 244
e 229 253
e 229 254
e 229 256
e 229 258
e 229 262
e 229 263
e 229 264
e 229 275
e 229 277
e 229 281
e 229 283
e 229 284
e 229 288
e 229 290
e 229 292
e 229 300
e 229 302
e 229 309
e 229 310
e 229 313
e 229 314
e 229 323
e 229 324
e 229 332
e 229 339
e 229 344
e 229 345
e 229 348
e 229 352
e 229 353
e 229 357
e 229 359
e 229 364
e 229 366
e 229 370
e 229 372
e 229 377
e 229 379
e 229 384
e 229 387
e 229 391
e 229 393
e 229 396
e 229 399
e 229 401
e 229 403
e 229 405
e 229 411
e 229 416
e 229 420
e 229 421
e 229 426
e 229 427
e 229 429
e 229 430
e 229 432
e 229 437
e 229 439
e 229 441
e 229 448
e 229 453
e 229 454
e 229 456
e 229 458
e 229 459
e 229 460
e 229 461
e 229 463
e 229 467
e 229 468
e 229 469
e 229 470
e 229 478
e 229 487
e 229 488
e 230 232
e 230 236
e 230 240
e 230 241
e 230 242
e 230 245
e 230 248
e 230 250
e 230 261
e 230 271
e 230 272
e 230 274
e 230 275
e 230 285
e 230 286
e 230 291
e 230 292
e 230 297
e 230 298
e 230 305
e 230 306
e 230 309
e 230 315
e 230 316
e 230 318
e 230 323
e 230 333
e 230 339
e 230 344
e 230 354
e 230 360
e 230 364
e 230 366
e 230 370
e 230 375
e 230 376
e 230 381
e 230 387
e 230 392
e 230 400
e 230 401
e 230 405
e 230 406
e 230 409
e 230 410
e 230 412
e 230 415
e 230 417
e 230 419
e 230 421
e 230 423
e 230 428
e 230 431
e 230 437
e 230 442
e 230 444
e 230 448
e 230 449
e 230 450
e 230 454
e 230 456
e 230 457
e 230 465
e 230 475
e 230 482
e 230 485
e 230 492
e 230 494
e 230 496
e 230 500
e 231 239
e 231 240
e 231 247
e 231 251
e 231 253
e 231 256
e 231 257
e 231 260
e 231 267
e 231 268
e 231 269
e 231 276
e 231 280
e 231 282
e 231 288
e 231 291
e 231 293
e 231 294
e 231 297
e 231 299
e 231 303
e 231 304
e 231 308
e 231 310
e 231 312
e 231 313
e 231 314
e 231 316
e 231 318
e 231 329
e 231 334
e 231 345
e 231 348
e 231 350
e 231 354
e 231 356
e 231 358
e 231 359
e 231 362
e 231 363
e 231 367
e 231 368
e 231 369
e 231 371
e 231 381
e 231 382
e 231 384
e 231 390
e 231 391
e 231 393
e 231 401
e 231 410
e 231 411
e 231 415
e 231 416
e 231 426
e 231 427
e 231 434
e 231 438
e 231 440
e 231 445
e 231 446
e 231 456
e 231 458
e 231 468
e 231 469
e 231 473
e 231 476
e 231 479
e 231 480
e 231 481
e 231 486
e 231 489
e 231 490
e 231 494
e 231 498
e 231 499
e 232 238
e 232 242
e 232 243
e 232 247
e 232 248
e 232 254
e 232 255
e 232 257
e 232 261
e 232 263
e 232 270
e 232 271
e 232 282
e 232 284
e 232 288
e 232 290
e 232 294
e 232 298
e 232 312
e 232 315
e 232 316
e 232 326
e 232 331
e 232 339
e 232 341
e 232 345
e 232 350
e 232 358
e 232 359
e 232 363
e 232 365
e 232 368
e 232 370
e 232 371
e 232 375
e 232 376
e 232 380
e 232 385
e 232 386
e 232 387
e 232 391
e 232 400
e 232 401
e 232 404
e 232 411
e 232 421
e 232 422
e 232 426
e 232 429
e 232 439
e 232 440
e 232 445
e 232 450
e 232 451
e 232 454
e 232 457
e 232 459
e 232 462
e 232 463
e 232 465
e 232 466
e 232 474
e 232 475
e 232 476
e 232 478
e 232 482
e 232 483
e 232 484
e 232 489
e 232 495
e 232 498
e 232 499
e 232 500
e 233 234
e 233 236
e 233 241
e 233 248
e 233 250
e 233 251
e 233 254
e 233 262
e 233 263
e 233 264
e 233 267
e 233 277
e 233 278
e 233 286
e 233 290
e 233 297
e 233 300
e 233 308
e 233 310
e 233 312
e 233 314
e 233 319
e 233 320
e 233 326
e 233 329
e 233 330
e 233 331
e 233 334
e 233 337
e 233 339
e 233 340
e 233 341
e 233 348
e 233 355
e 233 365
e 233 367
e 233 368
e 233 372
e 233 373
e 233 375
e 233 383
e 233 385
e 233 387
e 233 388
e 233 389
e 233 393
e 233 394
e 233 399
e 233 400
e 233 405
e 233 407
e 233 410
e 233 413
e 233 415
e 233 416
e 233 417
e 233 422
e 233 424
e 233 430
e 233 432
e 233 434
e 233 437
e 233 442
e 233 445
e 233 451
e 233 453
e 233 454
e 233 457
e 233 458
e 233 462
e 233 464
e 233 469
e 233 476
e 233 479
e 233 490
e 233 491
e 233 495
e 233 496
e 233 499
e 234 237
e 234 243
e 234 246
e 234 248
e 234 252
e 234 255
e 234 256
e 234 258
e 234 261
e 234 262
e 234 266
e 234 270
e 234 274
e 234 284
e 234 286
e 234 289
e 234 295
e 234 296
e 234 299
e 234 305
e 234 308
e 234 310
e 234 311
e 234 318
e 234 323
e 234 326
e 234 333
e 234 335
e 234 340
e 234 348
e 234 356
e 234 358
e 234 363
e 234 365
e 234 368
e 234 374
e 234 377
e 234 379
e 234 382
e 234 385
e 234 387
e 234 392
e 234 394
e 234 395
e 234 399
e 234 404
e 234 405
e 234 409
e 234 411
e 234 419
e 234 420
e 234 421
e 234 423
e 234 424
e 234 426
e 234 428
e 234 432
e 234 443
e 234 445
e 234 448
e 234 455
e 234 456
e 234 458
e 234 460
e 234 463
e 234 465
e 234 469
e 234 474
e 234 476
e 234 482
e 234 483
e 234 487
e 234 488
e 234 491
e 234 493
e 234 494
e 234 499
e 234 500
e 235 238
e 235 241
e 235 243
e 235 244
e 235 245
e 235 246
e 235 247
e 235 250
e 235 254
e 235 259
e 235 260
e 235 262
e 235 263
e 235 270
e 235 272
e 235 275
e 235 276
e 235 278
e 235 279
e 235 283
e 235 286
e 235 287
e 235 289
e 235 294
e 235 296
e 235 298
e 235 299
e 235 300
e 235 302
e 235 310
e 235 311
e 235 312
e 235 313
e 235 314
e 235 315
e 235 320
e 235 323
e 235 326
e 235 331
e 235 333
e 235 335
e 235 345
e 235 348
e 235 350
e 235 351
e 235 356
e 235 359
e 235 360
e 235 361
e 235 362
e 235 364
e 235 367
e 235 370
e 235 375
e 235 380
e 235 382
e 235 389
e 235 390
e 235 391
e 235 398
e 235 400
e 235 404
e 235 409
e 235 411
e 235 415
e 235 417
e 235 420
e 235 421
e 235 425
e 235 431
e 235 435
e 235 437
e 235 447
e 235 449
e 235 450
e 235 453
e 235 457
e 235 458
e 235 461
e 235 471
e 235 478
e 235 487
e 235 488
e 235 491
e 235 494
e 235 495
e 235 496
e 236 238
e 236 239
e 236 241
e 236 244
e 236 249
e 236 255
e 236 257
e 236 258
e 236 262
e 236 263
e 236 264
e 236 265
e 236 267
e 236 269
e 236 270
e 236 279
e 236 283
e 236 290
e 236 291
e 236 300
e 236 303
e 236 307
e 236 309
e 236 331
e 236 333
e 236 337
e 236 338
e 236 340
e 236 358
e 236 360
e 236 362
e 236 364
e 236 365
e 236 366
e 236 367
e 236 371
e 236 378
e 236 379
e 236 382
e 236 387
e 236 389
e 236 393
e 236 405
e 236 406
e 236 409
e 236 414
e 236 417
e 236 423
e 236 424
e 236 427
e 236 428
e 236 429
e 236 435
e 236 436
e 236 437
e 236 438
e 236 441
e 236 443
e 236 444
e 236 448
e 236 449
e 236 452
e 236 457
e 236 461
e 236 462
e 236 465
e 236 469
e 236 475
e 236 476
e 236 477
e 236 478
e 236 486
e 236 490
e 236 498
e 237 243
e 237 248
e 237 250
e 237 254
e 237 266
e 237 268
e 237 270
e 237 274
e 237 275
e 237 280
e 237 283
e 237 290
e 237 291
e 237 295
e 237 296
e 237 299
e 237 303
e 237 306
e 237 308
e 237 315
e 237 319
e 237 321
e 237 328
e 237 333
e 237 336
e 237 337
e 237 339
e 237 348
e 237 349
e 237 352
e 237 366
e 237 376
e 237 380
e 237 385
e 237 392
e 237 393
e 237 396
e 237 399
e 237 401
e 237 405
e 237 410
e 237 416
e 237 419
e 237 421
e 237 423
e 237 431
e 237 432
e 237 433
e 237 434
e 237 438
e 237 441
e 237 445
e 237 447
e 237 449
e 237 450
e 237 453
e 237 456
e 237 462
e 237 466
e 237 469
e 237 470
e 237 477
e 237 481
e 237 482
e 237 485
e 237 492
e 237 497
e 237 498
e 237 500
e 238 246
e 238 247
e 238 249
e 238 251
e 238 252
e 238 253
e 238 258
e 238 259
e 238 261
e 238 267
e 238 273
e 238 274
e 238 275
e 238 276
e 238 278
e 238 282
e 238 284
e 238 285
e 238 288
e 238 290
e 238 296
e 238 297
e 238 306
e 238 312
e 238 318
e 238 328
e 238 336
e 238 339
e 238 341
e 238 348
e 238 349
e 238 350
e 238 359
e 238 360
e 238 362
e 238 370
e 238 371
e 238 374
e 238 378
e 238 380
e 238 386
e 238 388
e 238 391
e 238 392
e 238 393
e 238 400
e 238 405
e 238 406
e 238 407
e 238 408
e 238 409
e 238 411
e 238 415
e 238 417
e 238 421
e 238 436
e 238 443
e 238 445
e 238 450
e 238 455
e 238 456
e 238 457
e 238 458
e 238 469
e 238 470
e 238 477
e 238 486
e 238 493
e 238 498
e 238 500
e 239 241
e 239 242
e 239 245
e 239 252
e 239 253
e 239 255
e 239 256
e 239 258
e 239 260
e 239 261
e 239 262
e 239 263
e 239 265
e 239 268
e 239 271
e 239 275
e 239 282
e 239 283
e 239 285
e 239 287
e 239 295
e 239 297
e 239 303
e 239 309
e 239 315
e 239 317
e 239 319
e 239 325
e 239 327
e 239 331
e 239 332
e 239 343
e 239 345
e 239 346
e 239 348
e 239 349
e 239 351
e 239 352
e 239 353
e 239 355
e 239 359
e 239 360
e 239 361
e 239 364
e 239 365
e 239 374
e 239 378
e 239 379
e 239 384
e 239 388
e 239 390
e 239 394
e 239 396
e 239 401
e 239 402
e 239 410
e 239 411
e 239 414
e 239 417
e 239 421
e 239 426
e 239 428
e 239 430
e 239 432
e 239 434
e 239 435
e 239 437
e 239 439
e 239 440
e 239 445
e 239 448
e 239 457
e 239 458
e 239 462
e 239 464
e 239 473
e 239 474
e 239 476
e 239 477
e 239 480
e 239 486
e 239 487
e 239 489
e 239 491
e 240 241
e 240 255
e 240 259
e 240 261
e 240 263
e 240 265
e 240 269
e 240 274
e 240 276
e 240 278
e 240 279
e 240 282
e 240 286
e 240 294
e 240 299
e 240 300
e 240 304
e 240 307
e 240 308
e 240 314
e 240 315
e 240 316
e 240 320
e 240 322
e 240 326
e 240 329
e 240 330
e 240 332
e 240 333
e 240 334
e 240 340
e 240 342
e 240 346
e 240 348
e 240 362
e 240 364
e 240 365
e 240 368
e 240 373
e 240 383
e 240 387
e 240 389
e 240 392
e 240 401
e 240 404
e 240 406
e 240 408
e 240 410
e 240 414
e 240 417
e 240 420
e 240 422
e 240 423
e 240 425
e 240 435
e 240 437
e 240 439
e 240 445
e 240 450
e 240 453
e 240 456
e 240 458
e 240 465
e 240 466
e 240 467
e 240 473
e 240 474
e 240 479
e 240 480
e 240 482
e 240 488
e 240 491
e 240 495
e 240 497
e 240 498
e 241 247
e 241 253
e 241 254
e 241 264
e 241 271
e 241 272
e 241 273
e 241 278
e 241 279
e 241 280
e 241 281
e 241 282
e 241 289
e 241 293
e 241 294
e 241 295
e 241 297
e 241 298
e 241 300
e 241 301
e 241 303
e 241 307
e 241 308
e 241 309
e 241 312
e 241 315
e 241 323
e 241 325
e 241 326
e 241 328
e 241 333
e 241 337
e 241 346
e 241 348
e 241 349
e 241 363
e 241 367
e 241 370
e 241 371
e 241 387
e 241 400
e 241 402
e 241 404
e 241 408
e 241 409
e 241 426
e 241 427
e 241 428
e 241 429
e 241 430
e 241 432
e 241 433
e 241 439
e 241 440
e 241 442
e 241 445
e 241 450
e 241 454
e 241 456
e 241 459
e 241 472
e 241 475
e 241 480
e 241 482
e 241 484
e 241 486
e 241 487
e 241 488
e 241 490
e 241 491
e 241 496
e 241 497
e 241 500
e 242 246
e 242 256
e 242 258
e 242 259
e 242 260
e 242 261
e 242 268
e 242 278
e 242 283
e 242 300
e 242 306
e 242 311
e 242 316
e 242 328
e 242 330
e 242 339
e 242 343
e 242 352
e 242 354
e 242 355
e 242 356
e 242 366
e 242 371
e 242 374
e 242 375
e 242 378
e 242 382
e 242 383
e 242 386
e 242 387
e 242 389
e 242 395
e 242 396
e 242 397
e 242 402
e 242 410
e 242 413
e 242 416
e 242 417
e 242 427
e 242 430
e 242 431
e 242 434
e 242 435
e 242 438
e 242 440
e 242 451
e 242 455
e 242 461
e 242 469
e 242 470
e 242 472
e 242 473
e 242 482
e 242 488
e 242 491
e 242 492
e 242 493
e 242 499
e 243 245
e 243 249
e 243 251
e 243 255
e 243 261
e 243 263
e 243 265
e 243 266
e 243 272
e 243 273
e 243 283
e 243 284
e 243 285
e 243 287
e 243 291
e 243 294
e 243 295
e 243 300
e 243 302
e 243 304
e 243 306
e 243 316
e 243 322
e 243 325
e 243 326
e 243 329
e 243 331
e 243 336
e 243 339
e 243 340
e 243 341
e 243 345
e 243 346
e 243 348
e 243 349
e 243 351
e 243 362
e 243 370
e 243 375
e 243 379
e 243 380
e 243 387
e 243 388
e 243 389
e 243 393
e 243 395
e 243 400
e 243 402
e 243 403
e 243 407
e 243 410
e 243 413
e 243 415
e 243 416
e 243 430
e 243 436
e 243 437
e 243 446
e 243 448
e 243 449
e 243 460
e 243 463
e 243 471
e 243 472
e 243 473
e 243 474
e 243 482
e 243 483
e 243 484
e 243 485
e 243 497
e 244 245
e 244 246
e 244 248
e 244 249
e 244 256
e 244 259
e 244 266
e 244 268
e 244 271
e 244 272
e 244 274
e 244 277
e 244 280
e 244 287
e 244 291
e 244 292
e 244 296
e 244 297
e 244 299
e 244 301
e 244 303
e 244 307
e 244 308
e 244 310
e 244 314
e 244 315
e 244 321
e 244 325
e 244 327
e 244 340
e 244 343
e 244 344
e 244 348
e 244 353
e 244 354
e 244 357
e 244 358
e 244 363
e 244 368
e 244 376
e 244 377
e 244 378
e 244 379
e 244 380
e 244 387
e 244 388
e 244 389
e 244 394
e 244 407
e 244 408
e 244 413
e 244 414
e 244 415
e 244 433
e 244 434
e 244 435
e 244 436
e 244 437
e 244 453
e 244 454
e 244 459
e 244 461
e 244 462
e 244 464
e 244 465
e 244 467
e 244 468
e 244 472
e 244 473
e 244 474
e 244 484
e 244 486
e 244 487
e 244 490
e 244 491
e 244 498
e 244 500
e 245 248
e 245 249
e 245 252
e 245 253
e 245 255
e 245 259
e 245 264
e 245 265
e 245 269
e 245 276
e 245 282
e 245 283
e 245 289
e 245 290
e 245 297
e 245 301
e 245 302
e 245 305
e 245 309
e 245 312
e 245 314
e 245 319
e 245 321
e 245 323
e 245 327
e 245 330
e 245 332
e 245 333
e 245 334
e 245 337
e 245 338
e 245 343
e 245 345
e 245 348
e 245 351
e 245 354
e 245 355
e 245 356
e 245 363
e 245 370
e 245 373
e 245 374
e 245 379
e 245 386
e 245 388
e 245 391
e 245 393
e 245 394
e 245 396
e 245 397
e 245 398
e 245 403
e 245 405
e 245 407
e 245 412
e 245 415
e 245 428
e 245 432
e 245 433
e 245 434
e 245 435
e 245 438
e 245 439
e 245 443
e 245 446
e 245 447
e 245 453
e 245 457
e 245 458
e 245 462
e 245 465
e 245 468
e 245 470
e 245 471
e 245 475
e 245 480
e 245 481
e 245 482
e 245 485
e 245 488
e 245 492
e 245 495
e 245 497
e 246 249
e 246 255
e 246 256
e 246 257
e 246 258
e 246 264
e 246 267
e 246 270
e 246 271
e 246 278
e 246 281
e 246 283
e 246 291
e 246 294
e 246 300
e 246 303
e 246 304
e 246 315
e 246 317
e 246 319
e 246 320
e 246 327
e 246 333
e 246 339
e 246 342
e 246 344
e 246 345
e 246 346
e 246 347
e 246 348
e 246 351
e 246 358
e 246 361
e 246 364
e 246 365
e 246 373
e 246 381
e 246 389
e 246 391
e 246 393
e 246 396
e 246 397
e 246 398
e 246 400
e 246 402
e 246 407
e 246 417
e 246 428
e 246 430
e 246 431
e 246 432
e 246 436
e 246 437
e 246 438
e 246 440
e 246 441
e 246 443
e 246 445
e 246 454
e 246 457
e 246 463
e 246 464
e 246 465
e 246 466
e 246 467
e 246 487
e 246 488
e 246 490
e 246 491
e 246 493
e 246 494
e 246 497
e 246 499
e 247 251
e 247 255
e 247 256
e 247 257
e 247 259
e 247 265
e 247 271
e 247 276
e 247 278
e 247 282
e 247 283
e 247 284
e 247 287
e 247 299
e 247 307
e 247 310
e 247 311
e 247 314
e 247 320
e 247 321
e 247 333
e 247 337
e 247 338
e 247 339
e 247 341
e 247 348
e 247 351
e 247 353
e 247 361
e 247 363
e 247 364
e 247 367
e 247 368
e 247 369
e 247 377
e 247 379
e 247 384
e 247 386
e 247 388
e 247 393
e 247 394
e 247 395
e 247 396
e 247 397
e 247 406
e 247 408
e 247 413
e 247 417
e 247 420
e 247 424
e 247 429
e 247 430
e 247 436
e 247 438
e 247 439
e 247 443
e 247 444
e 247 451
e 247 457
e 247 459
e 247 460
e 247 462
e 247 466
e 247 467
e 247 468
e 247 469
e 247 471
e 247 484
e 247 485
e 247 487
e 247 492
e 247 495
e 248 249
e 248 251
e 248 252
e 248 253
e 248 254
e 248 255
e 248 259
e 248 261
e 248 266
e 248 271
e 248 275
e 248 278
e 248 283
e 248 286
e 248 292
e 248 295
e 248 298
e 248 303
e 248 304
e 248 306
e 248 312
e 248 320
e 248 321
e 248 335
e 248 336
e 248 337
e 248 339
e 248 349
e 248 352
e 248 361
e 248 371
e 248 372
e 248 375
e 248 376
e 248 377
e 248 379
e 248 380
e 248 384
e 248 387
e 248 390
e 248 393
e 248 394
e 248 396
e 248 397
e 248 402
e 248 412
e 248 413
e 248 416
e 248 417
e 248 419
e 248 424
e 248 427
e 248 429
e 248 437
e 248 439
e 248 442
e 248 444
e 248 449
e 248 450
e 248 457
e 248 459
e 248 461
e 248 466
e 248 471
e 248 475
e 248 480
e 248 487
e 248 490
e 248 491
e 248 496
e 248 497
e 248 500
e 249 250
e 249 253
e 249 255
e 249 258
e 249 259
e 249 263
e 249 264
e 249 274
e 249 277
e 249 279
e 249 283
e 249 289
e 249 295
e 249 298
e 249 300
e 249 304
e 249 305
e 249 307
e 249 308
e 249 309
e 249 311
e 249 318
e 249 319
e 249 321
e 249 323
e 249 324
e 249 325
e 249 338
e 249 339
e 249 341
e 249 343
e 249 345
e 249 346
e 249 348
e 249 350
e 249 351
e 249 357
e 249 359
e 249 362
e 249 365
e 249 366
e 249 368
e 249 371
e 249 372
e 249 373
e 249 380
e 249 381
e 249 383
e 249 385
e 249 386
e 249 390
e 249 392
e 249 393
e 249 397
e 249 400
e 249 401
e 249 404
e 249 407
e 249 414
e 249 415
e 249 422
e 249 424
e 249 425
e 249 428
e 249 430
e 249 432
e 249 433
e 249 435
e 249 438
e 249 445
e 249 447
e 249 450
e 249 451
e 249 459
e 249 466
e 249 469
e 249 475
e 249 477
e 249 486
e 249 487
e 249 490
e 249 491
e 249 492
e 249 494
e 250 251
e 250 252
e 250 253
e 250 254
e 250 257
e 250 259
e 250 261
e 250 262
e 250 271
e 250 272
e 250 274
e 250 279
e 250 281
e 250 285
e 250 289
e 250 290
e 250 296
e 250 303
e 250 304
e 250 306
e 250 309
e 250 310
e 250 314
e 250 315
e 250 317
e 250 323
e 250 325
e 250 326
e 250 328
e 250 329
e 250 330
e 250 331
e 250 332
e 250 337
e 250 338
e 250 341
e 250 342
e 250 343
e 250 344
e 250 349
e 250 355
e 250 366
e 250 368
e 250 370
e 250 371
e 250 375
e 250 378
e 250 383
e 250 386
e 250 388
e 250 395
e 250 398
e 250 399
e 250 402
e 250 405
e 250 406
e 250 407
e 250 413
e 250 417
e 250 427
e 250 428
e 250 435
e 250 441
e 250 442
e 250 443
e 250 445
e 250 454
e 250 458
e 250 460
e 250 462
e 250 469
e 250 470
e 250 472
e 250 473
e 250 480
e 250 482
e 250 484
e 250 490
e 250 491
e 250 494
e 250 495
e 250 497
e 251 253
e 251 257
e 251 258
e 251 259
e 251 270
e 251 276
e 251 277
e 251 279
e 251 280
e 251 285
e 251 286
e 251 292
e 251 294
e 251 299
e 251 300
e 251 305
e 251 306
e 251 309
e 251 319
e 251 320
e 251 321
e 251 326
e 251 328
e 251 332
e 251 335
e 251 340
e 251 344
e 251 346
e 251 347
e 251 352
e 251 359
e 251 360
e 251 367
e 251 370
e 251 375
e 251 376
e 251 378
e 251 384
e 251 389
e 251 390
e 251 391
e 251 392
e 251 394
e 251 396
e 251 399
e 251 405
e 251 406
e 251 410
e 251 411
e 251 412
e 251 413
e 251 417
e 251 419
e 251 425
e 251 426
e 251 432
e 251 434
e 251 437
e 251 439
e 251 446
e 251 452
e 251 455
e 251 457
e 251 459
e 251 460
e 251 464
e 251 466
e 251 473
e 251 475
e 251 479
e 251 481
e 251 486
e 251 487
e 251 488
e 251 494
e 251 496
e 252 263
e 252 264
e 252 266
e 252 267
e 252 269
e 252 272
e 252 277
e 252 279
e 252 282
e 252 290
e 252 298
e 252 303
e 252 305
e 252 310
e 252 313
e 252 319
e 252 323
e 252 324
e 252 330
e 252 333
e 252 337
e 252 338
e 252 348
e 252 349
e 252 350
e 252 352
e 252 354
e 252 359
e 252 364
e 252 368
e 252 375
e 252 376
e 252 378
e 252 379
e 252 380
e 252 382
e 252 383
e 252 384
e 252 385
e 252 388
e 252 393
e 252 404
e 252 406
e 252 407
e 252 409
e 252 412
e 252 416
e 252 419
e 252 424
e 252 425
e 252 429
e 252 430
e 252 437
e 252 442
e 252 443
e 252 447
e 252 448
e 252 449
e 252 452
e 252 454
e 252 457
e 252 458
e 252 460
e 252 466
e 252 478
e 252 484
e 252 485
e 252 498
e 253 257
e 253 261
e 253 263
e 253 266
e 253 268
e 253 270
e 253 274
e 253 277
e 253 286
e 253 291
e 253 292
e 253 294
e 253 295
e 253 301
e 253 303
e 253 306
e 253 313
e 253 314
e 253 316
e 253 317
e 253 318
e 253 323
e 253 325
e 253 326
e 253 328
e 253 329
e 253 331
e 253 332
e 253 335
e 253 341
e 253 343
e 253 345
e 253 351
e 253 352
e 253 353
e 253 359
e 253 360
e 253 363
e 253 373
e 253 375
e 253 377
e 253 379
e 253 385
e 253 386
e 253 387
e 253 393
e 253 396
e 253 398
e 253 401
e 253 404
e 253 406
e 253 410
e 253 411
e 253 414
e 253 416
e 253 418
e 253 422
e 253 424
e 253 425
e 253 432
e 253 435
e 253 440
e 253 442
e 253 443
e 253 444
e 253 452
e 253 453
e 253 454
e 253 459
e 253 462
e 253 464
e 253 465
e 253 468
e 253 475
e 253 476
e 253 489
e 253 491
e 253 495
e 253 497
e 254 255
e 254 258
e 254 259
e 254 263
e 254 267
e 254 269
e 254 271
e 254 272
e 254 275
e 254 276
e 254 280
e 254 281
e 254 282
e 254 285
e 254 286
e 254 293
e 254 297
e 254 299
e 254 300
e 254 306
e 254 307
e 254 318
e 254 333
e 254 334
e 254 335
e 254 337
e 254 339
e 254 342
e 254 343
e 254 345
e 254 358
e 254 360
e 254 364
e 254 367
e 254 368
e 254 371
e 254 372
e 254 376
e 254 378
e 254 380
e 254 384
e 254 390
e 254 392
e 254 394
e 254 397
e 254 401
e 254 407
e 254 412
e 254 417
e 254 419
e 254 421
e 254 422
e 254 431
e 254 433
e 254 434
e 254 438
e 254 439
e 254 440
e 254 441
e 254 445
e 254 447
e 254 450
e 254 452
e 254 460
e 254 462
e 254 464
e 254 473
e 254 480
e 254 481
e 254 490
e 254 492
e 254 493
e 254 494
e 254 496
e 254 497
e 255 260
e 255 261
e 255 263
e 255 266
e 255 270
e 255 273
e 255 276
e 255 282
e 255 286
e 255 288
e 255 291
e 255 293
e 255 294
e 255 298
e 255 308
e 255 316
e 255 321
e 255 324
e 255 326
e 255 328
e 255 330
e 255 335
e 255 336
e 255 337
e 255 339
e 255 343
e 255 345
e 255 347
e 255 348
e 255 352
e 255 358
e 255 361
e 255 364
e 255 372
e 255 375
e 255 378
e 255 384
e 255 387
e 255 393
e 255 395
e 255 396
e 255 397
e 255 398
e 255 399
e 255 400
e 255 404
e 255 407
e 255 409
e 255 411
e 255 412
e 255 429
e 255 431
e 255 433
e 255 437
e 255 441
e 255 446
e 255 448
e 255 454
e 255 459
e 255 463
e 255 466
e 255 467
e 255 469
e 255 472
e 255 474
e 255 475
e 255 477
e 255 481
e 255 483
e 255 488
e 255 492
e 255 493
e 255 495
e 255 496
e 255 500
e 256 261
e 256 267
e 256 269
e 256 275
e 256 276
e 256 277
e 256 284
e 256 287
e 256 288
e 256 289
e 256 295
e 256 304
e 256 307
e 256 309
e 256 319
e 256 320
e 256 326
e 256 327
e 256 334
e 256 335
e 256 336
e 256 338
e 256 339
e 256 343
e 256 349
e 256 354
e 256 356
e 256 359
e 256 362
e 256 363
e 256 370
e 256 372
e 256 378
e 256 379
e 256 381
e 256 382
e 256 384
e 256 390
e 256 394
e 256 397
e 256 403
e 256 404
e 256 410
e 256 411
e 256 420
e 256 425
e 256 427
e 256 429
e 256 441
e 256 448
e 256 451
e 256 455
e 256 457
e 256 467
e 256 471
e 256 473
e 256 474
e 256 488
e 256 491
e 256 492
e 256 493
e 256 500
e 257 260
e 257 262
e 257 263
e 257 264
e 257 265
e 257 271
e 257 272
e 257 273
e 257 274
e 257 275
e 257 277
e 257 278
e 257 279
e 257 280
e 257 284
e 257 285
e 257 286
e 257 287
e 257 291
e 257 292
e 257 296
e 257 302
e 257 303
e 257 304
e 257 309
e 257 311
e 257 313
e 257 318
e 257 322
e 257 323
e 257 327
e 257 329
e 257 331
e 257 338
e 257 339
e 257 344
e 257 345
e 257 348
e 257 355
e 257 361
e 257 363
e 257 364
e 257 368
e 257 371
e 257 374
e 257 376
e 257 380
e 257 382
e 257 384
e 257 387
e 257 393
e 257 394
e 257 400
e 257 401
e 257 403
e 257 404
e 257 406
e 257 413
e 257 414
e 257 417
e 257 433
e 257 438
e 257 441
e 257 446
e 257 450
e 257 451
e 257 454
e 257 457
e 257 458
e 257 459
e 257 468
e 257 469
e 257 474
e 257 476
e 257 480
e 257 485
e 257 487
e 257 488
e 257 499
e 257 500
e 258 259
e 258 261
e 258 263
e 258 267
e 258 268
e 258 270
e 258 272
e 258 273
e 258 285
e 258 289
e 258 290
e 258 291
e 258 294
e 258 299
e 258 303
e 258 305
e 258 306
e 258 308
e 258 310
e 258 312
e 258 314
e 258 319
e 258 323
e 258 324
e 258 325
e 258 331
e 258 334
e 258 342
e 258 343
e 258 348
e 258 349
e 258 350
e 258 352
e 258 358
e 258 359
e 258 361
e 258 365
e 258 366
e 258 367
e 258 371
e 258 376
e 258 378
e 258 381
e 258 384
e 258 385
e 258 387
e 258 391
e 258 396
e 258 403
e 258 404
e 258 411
e 258 412
e 258 414
e 258 417
e 258 419
e 258 429
e 258 430
e 258 439
e 258 440
e 258 441
e 258 443
e 258 447
e 258 450
e 258 451
e 258 453
e 258 455
e 258 456
e 258 464
e 258 469
e 258 474
e 258 476
e 258 477
e 258 483
e 258 486
e 258 488
e 258 490
e 258 493
e 258 498
e 259 260
e 259 263
e 259 265
e 259 272
e 259 276
e 259 281
e 259 282
e 259 284
e 259 285
e 259 287
e 259 290
e 259 293
e 259 295
e 259 296
e 259 301
e 259 302
e 259 306
e 259 310
e 259 312
e 259 314
e 259 322
e 259 323
e 259 324
e 259 327
e 259 328
e 259 329
e 259 330
e 259 331
e 259 333
e 259 334
e 259 337
e 259 340
e 259 345
e 259 346
e 259 352
e 259 358
e 259 369
e 259 370
e 259 375
e 259 379
e 259 382
e 259 384
e 259 385
e 259 388
e 259 391
e 259 394
e 259 404
e 259 413
e 259 417
e 259 419
e 259 422
e 259 426
e 259 427
e 259 429
e 259 434
e 259 436
e 259 438
e 259 439
e 259 444
e 259 447
e 259 452
e 259 453
e 259 456
e 259 458
e 259 459
e 259 461
e 259 464
e 259 468
e 259 470
e 259 472
e 259 474
e 259 480
e 259 483
e 259 488
e 259 491
e 259 496
e 260 262
e 260 265
e 260 267
e 260 271
e 260 277
e 260 279
e 260 280
e 260 281
e 260 282
e 260 290
e 260 295
e 260 296
e 260 302
e 260 303
e 260 311
e 260 316
e 260 318
e 260 320
e 260 324
e 260 328
e 260 330
e 260 332
e 260 333
e 260 338
e 260 344
e 260 345
e 260 352
e 260 353
e 260 355
e 260 366
e 260 367
e 260 375
e 260 382
e 260 387
e 260 396
e 260 400
e 260 402
e 260 409
e 260 410
e 260 412
e 260 428
e 260 431
e 260 433
e 260 434
e 260 435
e 260 436
e 260 440
e 260 447
e 260 457
e 260 459
e 260 465
e 260 468
e 260 470
e 260 475
e 260 478
e 260 479
e 260 481
e 260 484
e 260 486
e 260 487
e 260 493
e 260 495
e 260 498
e 261 263
e 261 264
e 261 266
e 261 267
e 261 269
e 261 271
e 261 275
e 261 282
e 261 284
e 261 289
e 261 291
e 261 294
e 261 298
e 261 301
e 261 302
e 261 303
e 261 305
e 261 306
e 261 311
e 261 315
e 261 318
e 261 323
e 261 328
e 261 332
e 261 338
e 261 343
e 261 349
e 261 353
e 261 354
e 261 358
e 261 359
e 261 363
e 261 364
e 261 370
e 261 371
e 261 377
e 261 379
e 261 387
e 261 393
e 261 400
e 261 402
e 261 403
e 261 406
e 261 407
e 261 411
e 261 414
e 261 420
e 261 421
e 261 422
e 261 433
e 261 434
e 261 442
e 261 444
e 261 450
e 261 458
e 261 460
e 261 461
e 261 462
e 261 467
e 261 468
e 261 472
e 261 473
e 261 475
e 261 479
e 261 480
e 261 482
e 261 484
e 261 487
e 261 490
e 261 498
e 262 263
e 262 267
e 262 273
e 262 274
e 262 277
e 262 278
e 262 280
e 262 284
e 262 288
e 262 289
e 262 290
e 262 296
e 262 299
e 262 303
e 262 312
e 262 314
e 262 315
e 262 316
e 262 317
e 262 320
e 262 322
e 262 325
e 262 330
e 262 336
e 262 340
e 262 343
e 262 350
e 262 354
e 262 355
e 262 356
e 262 359
e 262 361
e 262 362
e 262 365
e 262 367
e 262 374
e 262 376
e 262 378
e 262 381
e 262 382
e 262 383
e 262 388
e 262 393
e 262 396
e 262 399
e 262 401
e 262 403
e 262 404
e 262 407
e 262 409
e 262 413
e 262 420
e 262 428
e 262 429
e 262 432
e 262 433
e 262 434
e 262 440
e 262 441
e 262 443
e 262 447
e 262 452
e 262 453
e 262 455
e 262 461
e 262 468
e 262 469
e 262 472
e 262 476
e 262 477
e 262 479
e 262 482
e 262 483
e 262 485
e 262 490
e 262 492
e 262 494
e 262 496
e 263 264
e 263 266
e 263 269
e 263 270
e 263 272
e 263 276
e 263 280
e 263 282
e 263 284
e 263 285
e 263 286
e 263 288
e 263 297
e 263 303
e 263 305
e 263 308
e 263 313
e 263 317
e 263 325
e 263 337
e 263 338
e 263 339
e 263 340
e 263 349
e 263 352
e 263 353
e 263 355
e 263 356
e 263 358
e 263 360
e 263 361
e 263 366
e 263 367
e 263 373
e 263 376
e 263 378
e 263 379
e 263 398
e 263 399
e 263 404
e 263 407
e 263 408
e 263 409
e 263 412
e 263 415
e 263 417
e 263 418
e 263 419
e 263 425
e 263 428
e 263 429
e 263 432
e 263 436
e 263 442
e 263 444
e 263 445
e 263 448
e 263 449
e 263 454
e 263 456
e 263 458
e 263 462
e 263 469
e 263 474
e 263 481
e 263 482
e 263 483
e 263 484
e 263 485
e 263 487
e 263 490
e 263 495
e 264 265
e 264 270
e 264 273
e 264 276
e 264 277
e 264 281
e 264 287
e 264 290
e 264 295
e 264 303
e 264 309
e 264 313
e 264 322
e 264 332
e 264 333
e 264 334
e 264 336
e 264 342
e 264 347
e 264 349
e 264 350
e 264 353
e 264 360
e 264 363
e 264 368
e 264 370
e 264 371
e 264 375
e 264 378
e 264 380
e 264 381
e 264 385
e 264 388
e 264 392
e 264 393
e 264 402
e 264 407
e 264 410
e 264 412
e 264 417
e 264 426
e 264 430
e 264 431
e 264 436
e 264 439
e 264 442
e 264 444
e 264 448
e 264 449
e 264 452
e 264 453
e 264 455
e 264 457
e 264 468
e 264 470
e 264 473
e 264 474
e 264 476
e 264 480
e 264 482
e 264 483
e 264 485
e 264 488
e 264 495
e 264 496
e 264 497
e 265 266
e 265 268
e 265 269
e 265 270
e 265 279
e 265 281
e 265 284
e 265 285
e 265 287
e 265 297
e 265 301
e 265 302
e 265 311
e 265 312
e 265 313
e 265 320
e 265 322
e 265 326
e 265 329
e 265 331
e 265 332
e 265 346
e 265 350
e 265 354
e 265 355
e 265 358
e 265 360
e 265 361
e 265 362
e 265 363
e 265 364
e 265 366
e 265 367
e 265 369
e 265 370
e 265 371
e 265 376
e 265 377
e 265 385
e 265 386
e 265 388
e 265 389
e 265 391
e 265 395
e 265 398
e 265 400
e 265 401
e 265 406
e 265 413
e 265 415
e 265 416
e 265 418
e 265 419
e 265 421
e 265 422
e 265 424
e 265 426
e 265 439
e 265 440
e 265 446
e 265 461
e 265 464
e 265 467
e 265 468
e 265 472
e 265 474
e 265 475
e 265 481
e 265 495
e 265 499
e 265 500
e 266 267
e 266 270
e 266 271
e 266 272
e 266 276
e 266 277
e 266 284
e 266 285
e 266 290
e 266 295
e 266 297
e 266 307
e 266 310
e 266 311
e 266 313
e 266 314
e 266 315
e 266 317
e 266 318
e 266 319
e 266 329
e 266 330
e 266 333
e 266 344
e 266 345
e 266 346
e 266 356
e 266 362
e 266 365
e 266 372
e 266 373
e 266 374
e 266 383
e 266 385
e 266 388
e 266 395
e 266 396
e 266 402
e 266 404
e 266 410
e 266 412
e 266 418
e 266 419
e 266 421
e 266 424
e 266 429
e 266 431
e 266 432
e 266 435
e 266 437
e 266 439
e 266 440
e 266 442
e 266 444
e 266 456
e 266 457
e 266 460
e 266 464
e 266 470
e 266 471
e 266 474
e 266 479
e 266 481
e 266 482
e 266 484
e 266 488
e 266 490
e 266 491
e 266 494
e 266 498
e 267 268
e 267 270
e 267 274
e 267 275
e 267 280
e 267 293
e 267 296
e 267 298
e 267 301
e 267 302
e 267 307
e 267 308
e 267 310
e 267 316
e 267 320
e 267 323
e 267 324
e 267 325
e 267 328
e 267 336
e 267 340
e 267 346
e 267 351
e 267 357
e 267 358
e 267 360
e 267 364
e 267 367
e 267 369
e 267 371
e 267 373
e 267 377
e 267 378
e 267 380
e 267 384
e 267 387
e 267 388
e 267 391
e 267 393
e 267 394
e 267 396
e 267 402
e 267 404
e 267 405
e 267 408
e 267 409
e 267 413
e 267 417
e 267 423
e 267 426
e 267 427
e 267 435
e 267 440
e 267 445
e 267 451
e 267 469
e 267 475
e 267 477
e 267 483
e 267 490
e 267 492
e 267 494
e 268 271
e 268 274
e 268 275
e 268 277
e 268 279
e 268 284
e 268 285
e 268 290
e 268 293
e 268 294
e 268 295
e 268 298
e 268 302
e 268 303
e 268 307
e 268 308
e 268 312
e 268 314
e 268 316
e 268 317
e 268 318
e 268 321
e 268 322
e 268 324
e 268 325
e 268 326
e 268 329
e 268 332
e 268 333
e 268 335
e 268 338
e 268 339
e 268 343
e 268 347
e 268 348
e 268 353
e 268 362
e 268 363
e 268 364
e 268 365
e 268 366
e 268 368
e 268 369
e 268 370
e 268 372
e 268 374
e 268 378
e 268 382
e 268 386
e 268 397
e 268 399
e 268 404
e 268 407
e 268 408
e 268 413
e 268 421
e 268 423
e 268 426
e 268 427
e 268 431
e 268 432
e 268 434
e 268 435
e 268 437
e 268 447
e 268 451
e 268 454
e 268 456
e 268 464
e 268 471
e 268 479
e 268 480
e 268 481
e 268 482
e 268 483
e 268 487
e 268 491
e 268 494
e 269 270
e 269 273
e 269 277
e 269 281
e 269 282
e 269 284
e 269 286
e 269 287
e 269 290
e 269 295
e 269 298
e 269 300
e 269 304
e 269 307
e 269 308
e 269 317
e 269 318
e 269 322
e 269 323
e 269 324
e 269 325
e 269 329
e 269 331
e 269 332
e 269 335
e 269 336
e 269 339
e 269 346
e 269 351
e 269 356
e 269 358
e 269 365
e 269 368
e 269 370
e 269 373
e 269 381
e 269 384
e 269 387
e 269 388
e 269 392
e 269 397
e 269 403
e 269 407
e 269 414
e 269 417
e 269 422
e 269 423
e 269 427
e 269 434
e 269 435
e 269 444
e 269 449
e 269 452
e 269 453
e 269 459
e 269 464
e 269 472
e 269 480
e 269 485
e 269 492
e 269 495
e 270 272
e 270 276
e 270 278
e 270 280
e 270 281
e 270 285
e 270 286
e 270 294
e 270 296
e 270 299
e 270 303
e 270 306
e 270 309
e 270 310
e 270 314
e 270 316
e 270 319
e 270 326
e 270 330
e 270 336
e 270 337
e 270 340
e 270 347
e 270 348
e 270 351
e 270 352
e 270 358
e 270 364
e 270 369
e 270 370
e 270 371
e 270 374
e 270 375
e 270 379
e 270 380
e 270 382
e 270 386
e 270 388
e 270 389
e 270 391
e 270 392
e 270 393
e 270 398
e 270 399
e 270 404
e 270 407
e 270 410
e 270 412
e 270 416
e 270 428
e 270 429
e 270 434
e 270 437
e 270 438
e 270 444
e 270 445
e 270 446
e 270 450
e 270 453
e 270 454
e 270 461
e 270 464
e 270 466
e 270 470
e 270 471
e 270 476
e 270 479
e 270 489
e 271 273
e 271 276
e 271 280
e 271 287
e 271 300
e 271 302
e 271 303
e 271 306
e 271 309
e 271 310
e 271 311
e 271 312
e 271 315
e 271 321
e 271 325
e 271 327
e 271 343
e 271 345
e 271 346
e 271 349
e 271 350
e 271 351
e 271 360
e 271 361
e 271 363
e 271 368
e 271 369
e 271 371
e 271 373
e 271 375
e 271 378
e 271 379
e 271 382
e 271 383
e 271 387
e 271 390
e 271 392
e 271 393
e 271 400
e 271 401
e 271 406
e 271 408
e 271 409
e 271 410
e 271 411
e 271 412
e 271 415
e 271 416
e 271 421
e 271 423
e 271 425
e 271 426
e 271 428
e 271 430
e 271 434
e 271 435
e 271 436
e 271 440
e 271 449
e 271 450
e 271 452
e 271 453
e 271 457
e 271 461
e 271 463
e 271 464
e 271 465
e 271 470
e 271 471
e 271 474
e 271 476
e 271 477
e 271 478
e 271 479
e 271 481
e 271 483
e 271 486
e 271 488
e 271 490
e 271 492
e 271 499
e 272 277
e 272 278
e 272 281
e 272 295
e 272 296
e 272 302
e 272 303
e 272 313
e 272 314
e 272 317
e 272 322
e 272 325
e 272 327
e 272 328
e 272 332
e 272 335
e 272 338
e 272 339
e 272 343
e 272 344
e 272 346
e 272 349
e 272 356
e 272 358
e 272 365
e 272 369
e 272 371
e 272 372
e 272 375
e 272 377
e 272 378
e 272 379
e 272 385
e 272 387
e 272 389
e 272 390
e 272 391
e 272 393
e 272 394
e 272 400
e 272 401
e 272 406
e 272 413
e 272 414
e 272 415
e 272 419
e 272 420
e 272 421
e 272 428
e 272 429
e 272 432
e 272 435
e 272 437
e 272 439
e 272 440
e 272 442
e 272 444
e 272 446
e 272 450
e 272 455
e 272 456
e 272 459
e 272 479
e 272 483
e 272 484
e 272 491
e 272 492
e 272 500
e 273 280
e 273 281
e 273 282
e 273 289
e 273 290
e 273 293
e 273 294
e 273 298
e 273 300
e 273 308
e 273 316
e 273 317
e 273 321
e 273 323
e 273 333
e 273 335
e 273 337
e 273 341
e 273 350
e 273 354
e 273 357
e 273 365
e 273 366
e 273 374
e 273 375
e 273 376
e 273 385
e 273 394
e 273 401
e 273 402
e 273 403
e 273 404
e 273 406
e 273 407
e 273 409
e 273 413
e 273 420
e 273 425
e 273 430
e 273 433
e 273 437
e 273 438
e 273 439
e 273 440
e 273 441
e 273 442
e 273 443
e 273 445
e 273 446
e 273 448
e 273 449
e 273 451
e 273 456
e 273 461
e 273 462
e 273 466
e 273 469
e 273 472
e 273 474
e 273 475
e 273 477
e 273 488
e 273 492
e 273 493
e 273 494
e 273 499
e 274 275
e 274 276
e 274 277
e 274 278
e 274 281
e 274 285
e 274 296
e 274 297
e 274 300
e 274 303
e 274 306
e 274 311
e 274 313
e 274 316
e 274 319
e 274 320
e 274 323
e 274 327
e 274 329
e 274 333
e 274 338
e 274 339
e 274 344
e 274 345
e 274 350
e 274 352
e 274 353
e 274 355
e 274 358
e 274 361
e 274 363
e 274 365
e 274 366
e 274 367
e 274 371
e 274 377
e 274 386
e 274 387
e 274 389
e 274 390
e 274 396
e 274 405
e 274 407
e 274 408
e 274 411
e 274 414
e 274 416
e 274 423
e 274 425
e 274 428
e 274 433
e 274 434
e 274 436
e 274 439
e 274 441
e 274 445
e 274 447
e 274 449
e 274 454
e 274 455
e 274 457
e 274 460
e 274 466
e 274 471
e 274 472
e 274 481
e 274 483
e 274 484
e 274 485
e 274 494
e 274 496
e 274 499
e 275 276
e 275 278
e 275 280
e 275 282
e 275 283
e 275 289
e 275 297
e 275 305
e 275 311
e 275 314
e 275 320
e 275 324
e 275 325
e 275 329
e 275 333
e 275 338
e 275 341
e 275 343
e 275 345
e 275 347
e 275 358
e 275 359
e 275 360
e 275 364
e 275 366
e 275 370
e 275 376
e 275 378
e 275 385
e 275 393
e 275 396
e 275 400
e 275 401
e 275 402
e 275 407
e 275 408
e 275 413
e 275 416
e 275 417
e 275 418
e 275 426
e 275 427
e 275 428
e 275 431
e 275 436
e 275 437
e 275 441
e 275 445
e 275 446
e 275 454
e 275 457
e 275 459
e 275 466
e 275 472
e 275 473
e 275 474
e 275 475
e 275 476
e 275 486
e 275 487
e 275 492
e 275 493
e 275 495
e 275 497
e 276 277
e 276 281
e 276 286
e 276 290
e 276 291
e 276 294
e 276 299
e 276 300
e 276 301
e 276 302
e 276 303
e 276 306
e 276 310
e 276 312
e 276 314
e 276 322
e 276 324
e 276 325
e 276 335
e 276 342
e 276 344
e 276 350
e 276 351
e 276 352
e 276 354
e 276 357
e 276 358
e 276 360
e 276 361
e 276 365
e 276 366
e 276 369
e 276 375
e 276 376
e 276 384
e 276 385
e 276 391
e 276 394
e 276 398
e 276 399
e 276 400
e 276 403
e 276 413
e 276 422
e 276 428
e 276 430
e 276 433
e 276 434
e 276 439
e 276 441
e 276 442
e 276 443
e 276 449
e 276 461
e 276 464
e 276 465
e 276 469
e 276 472
e 276 477
e 276 480
e 276 484
e 276 485
e 276 488
e 276 492
e 276 495
e 277 279
e 277 280
e 277 285
e 277 289
e 277 291
e 277 293
e 277 296
e 277 298
e 277 301
e 277 306
e 277 312
e 277 314
e 277 316
e 277 322
e 277 333
e 277 340
e 277 342
e 277 343
e 277 344
e 277 346
e 277 351
e 277 357
e 277 358
e 277 360
e 277 362
e 277 364
e 277 369
e 277 378
e 277 379
e 277 380
e 277 384
e 277 385
e 277 387
e 277 388
e 277 389
e 277 393
e 277 397
e 277 403
e 277 404
e 277 408
e 277 413
e 277 416
e 277 417
e 277 420
e 277 422
e 277 424
e 277 425
e 277 427
e 277 428
e 277 432
e 277 433
e 277 438
e 277 448
e 277 455
e 277 456
e 277 462
e 277 464
e 277 474
e 277 477
e 277 481
e 277 483
e 277 485
e 277 486
e 277 487
e 277 488
e 277 489
e 277 491
e 277 492
e 277 493
e 277 495
e 277 497
e 277 499
e 278 281
e 278 283
e 278 284
e 278 285
e 278 287
e 278 290
e 278 297
e 278 303
e 278 306
e 278 307
e 278 318
e 278 319
e 278 325
e 278 326
e 278 329
e 278 337
e 278 340
e 278 341
e 278 342
e 278 346
e 278 349
e 278 352
e 278 359
e 278 362
e 278 369
e 278 371
e 278 372
e 278 375
e 278 380
e 278 381
e 278 384
e 278 388
e 278 391
e 278 392
e 278 399
e 278 405
e 278 408
e 278 410
e 278 412
e 278 415
e 278 418
e 278 420
e 278 432
e 278 435
e 278 437
e 278 439
e 278 444
e 278 449
e 278 454
e 278 458
e 278 460
e 278 461
e 278 462
e 278 463
e 278 466
e 278 474
e 278 477
e 278 479
e 278 481
e 278 482
e 278 490
e 278 491
e 278 492
e 278 493
e 278 496
e 279 285
e 279 286
e 279 287
e 279 289
e 279 291
e 279 293
e 279 296
e 279 302
e 279 309
e 279 314
e 279 324
e 279 325
e 279 326
e 279 331
e 279 333
e 279 335
e 279 336
e 279 337
e 279 342
e 279 346
e 279 352
e 279 357
e 279 360
e 279 367
e 279 380
e 279 384
e 279 385
e 279 387
e 279 388
e 279 389
e 279 393
e 279 397
e 279 398
e 279 399
e 279 402
e 279 414
e 279 417
e 279 418
e 279 423
e 279 424
e 279 426
e 279 430
e 279 432
e 279 436
e 279 442
e 279 445
e 279 452
e 279 459
e 279 463
e 279 470
e 279 473
e 279 474
e 279 476
e 279 482
e 279 484
e 279 486
e 279 493
e 279 494
e 279 495
e 279 496
e 280 282
e 280 286
e 280 289
e 280 290
e 280 291
e 280 293
e 280 296
e 280 301
e 280 303
e 280 304
e 280 305
e 280 311
e 280 312
e 280 318
e 280 319
e 280 327
e 280 329
e 280 330
e 280 335
e 280 338
e 280 349
e 280 350
e 280 355
e 280 356
e 280 357
e 280 358
e 280 360
e 280 361
e 280 366
e 280 373
e 280 375
e 280 380
e 280 385
e 280 389
e 280 397
e 280 398
e 280 399
e 280 402
e 280 404
e 280 410
e 280 411
e 280 412
e 280 439
e 280 443
e 280 444
e 280 448
e 280 451
e 280 454
e 280 456
e 280 458
e 280 461
e 280 463
e 280 464
e 280 467
e 280 470
e 280 471
e 280 472
e 280 475
e 280 476
e 280 478
e 280 484
e 280 487
e 280 488
e 280 493
e 280 495
e 280 500
e 281 284
e 281 292
e 281 295
e 281 296
e 281 300
e 281 301
e 281 309
e 281 319
e 281 337
e 281 346
e 281 349
e 281 352
e 281 353
e 281 357
e 281 360
e 281 361
e 281 362
e 281 367
e 281 369
e 281 372
e 281 374
e 281 387
e 281 389
e 281 392
e 281 395
e 281 400
e 281 405
e 281 408
e 281 409
e 281 410
e 281 414
e 281 416
e 281 417
e 281 418
e 281 422
e 281 429
e 281 434
e 281 437
e 281 438
e 281 441
e 281 442
e 281 444
e 281 448
e 281 451
e 281 455
e 281 458
e 281 460
e 281 461
e 281 462
e 281 463
e 281 468
e 281 469
e 281 472
e 281 477
e 281 480
e 281 492
e 281 497
e 281 500
e 282 289
e 282 292
e 282 294
e 282 295
e 282 298
e 282 300
e 282 305
e 282 313
e 282 315
e 282 318
e 282 320
e 282 322
e 282 326
e 282 328
e 282 330
e 282 333
e 282 337
e 282 340
e 282 347
e 282 352
e 282 356
e 282 358
e 282 361
e 282 371
e 282 375
e 282 376
e 282 379
e 282 389
e 282 395
e 282 397
e 282 400
e 282 403
e 282 406
e 282 410
e 282 411
e 282 414
e 282 418
e 282 420
e 282 421
e 282 423
e 282 424
e 282 432
e 282 435
e 282 438
e 282 444
e 282 449
e 282 450
e 282 455
e 282 456
e 282 468
e 282 471
e 282 478
e 282 483
e 282 486
e 282 492
e 282 494
e 282 499
e 282 500
e 283 286
e 283 290
e 283 293
e 283 294
e 283 295
e 283 304
e 283 326
e 283 327
e 283 329
e 283 333
e 283 335
e 283 338
e 283 339
e 283 341
e 283 344
e 283 345
e 283 347
e 283 350
e 283 351
e 283 354
e 283 360
e 283 370
e 283 371
e 283 376
e 283 379
e 283 381
e 283 382
e 283 387
e 283 391
e 283 393
e 283 398
e 283 399
e 283 400
e 283 406
e 283 408
e 283 413
e 283 418
e 283 419
e 283 428
e 283 432
e 283 443
e 283 445
e 283 446
e 283 452
e 283 457
e 283 458
e 283 459
e 283 468
e 283 469
e 283 470
e 283 471
e 283 474
e 283 475
e 283 476
e 283 479
e 283 482
e 283 484
e 283 485
e 283 486
e 283 490
e 283 491
e 283 493
e 283 496
e 284 287
e 284 288
e 284 293
e 284 297
e 284 298
e 284 300
e 284 308
e 284 316
e 284 325
e 284 326
e 284 337
e 284 338
e 284 339
e 284 345
e 284 348
e 284 352
e 284 356
e 284 357
e 284 362
e 284 364
e 284 367
e 284 372
e 284 373
e 284 374
e 284 376
e 284 377
e 284 379
e 284 382
e 284 384
e 284 386
e 284 387
e 284 388
e 284 390
e 284 394
e 284 395
e 284 398
e 284 402
e 284 404
e 284 407
e 284 411
e 284 412
e 284 415
e 284 420
e 284 422
e 284 423
e 284 427
e 284 428
e 284 431
e 284 434
e 284 444
e 284 447
e 284 450
e 284 457
e 284 460
e 284 463
e 284 466
e 284 470
e 284 471
e 284 476
e 284 480
e 284 481
e 284 482
e 284 490
e 284 496
e 284 499
e 284 500
e 285 295
e 285 298
e 285 305
e 285 306
e 285 314
e 285 316
e 285 317
e 285 319
e 285 321
e 285 323
e 285 324
e 285 326
e 285 336
e 285 337
e 285 338
e 285 339
e 285 340
e 285 341
e 285 343
e 285 349
e 285 352
e 285 353
e 285 355
e 285 356
e 285 360
e 285 366
e 285 374
e 285 376
e 285 378
e 285 379
e 285 380
e 285 384
e 285 386
e 285 389
e 285 390
e 285 398
e 285 406
e 285 407
e 285 408
e 285 409
e 285 410
e 285 425
e 285 437
e 285 438
e 285 442
e 285 443
e 285 444
e 285 447
e 285 449
e 285 452
e 285 454
e 285 462
e 285 463
e 285 465
e 285 467
e 285 471
e 285 482
e 285 485
e 285 486
e 285 488
e 285 492
e 285 498
e 286 287
e 286 288
e 286 289
e 286 291
e 286 292
e 286 295
e 286 299
e 286 303
e 286 304
e 286 306
e 286 307
e 286 312
e 286 317
e 286 331
e 286 333
e 286 336
e 286 338
e 286 340
e 286 343
e 286 347
e 286 348
e 286 351
e 286 353
e 286 356
e 286 358
e 286 360
e 286 361
e 286 364
e 286 366
e 286 367
e 286 371
e 286 382
e 286 387
e 286 388
e 286 391
e 286 402
e 286 405
e 286 412
e 286 416
e 286 419
e 286 425
e 286 427
e 286 429
e 286 431
e 286 432
e 286 435
e 286 437
e 286 438
e 286 439
e 286 441
e 286 444
e 286 446
e 286 448
e 286 449
e 286 451
e 286 457
e 286 462
e 286 463
e 286 466
e 286 468
e 286 470
e 286 471
e 286 474
e 286 475
e 286 479
e 286 481
e 286 484
e 286 487
e 286 488
e 286 489
e 286 490
e 286 494
e 286 499
e 286 500
e 287 288
e 287 292
e 287 297
e 287 303
e 287 312
e 287 325
e 287 327
e 287 328
e 287 329
e 287 332
e 287 334
e 287 336
e 287 340
e 287 341
e 287 352
e 287 356
e 287 359
e 287 369
e 287 370
e 287 371
e 287 373
e 287 377
e 287 379
e 287 380
e 287 383
e 287 384
e 287 386
e 287 388
e 287 392
e 287 393
e 287 395
e 287 405
e 287 407
e 287 416
e 287 417
e 287 420
e 287 421
e 287 422
e 287 431
e 287 435
e 287 440
e 287 441
e 287 443
e 287 446
e 287 449
e 287 457
e 287 462
e 287 466
e 287 467
e 287 472
e 287 473
e 287 474
e 287 479
e 287 485
e 287 487
e 287 489
e 287 492
e 287 497
e 287 499
e 287 500
e 288 289
e 288 296
e 288 297
e 288 298
e 288 299
e 288 300
e 288 301
e 288 305
e 288 307
e 288 313
e 288 314
e 288 317
e 288 324
e 288 325
e 288 329
e 288 331
e 288 332
e 288 338
e 288 351
e 288 354
e 288 356
e 288 359
e 288 360
e 288 362
e 288 363
e 288 364
e 288 365
e 288 369
e 288 370
e 288 374
e 288 376
e 288 377
e 288 378
e 288 380
e 288 382
e 288 383
e 288 385
e 288 386
e 288 387
e 288 392
e 288 397
e 288 403
e 288 409
e 288 417
e 288 428
e 288 433
e 288 434
e 288 435
e 288 441
e 288 446
e 288 449
e 288 453
e 288 454
e 288 455
e 288 456
e 288 458
e 288 464
e 288 470
e 288 475
e 288 477
e 288 478
e 288 479
e 288 480
e 288 485
e 288 486
e 288 489
e 288 495
e 288 497
e 288 499
e 289 291
e 289 294
e 289 295
e 289 315
e 289 316
e 289 318
e 289 320
e 289 321
e 289 322
e 289 325
e 289 328
e 289 331
e 289 333
e 289 334
e 289 336
e 289 338
e 289 343
e 289 344
e 289 346
e 289 349
e 289 353
e 289 357
e 289 359
e 289 360
e 289 362
e 289 366
e 289 368
e 289 369
e 289 378
e 289 381
e 289 384
e 289 385
e 289 387
e 289 390
e 289 392
e 289 393
e 289 398
e 289 400
e 289 404
e 289 411
e 289 421
e 289 436
e 289 438
e 289 444
e 289 445
e 289 449
e 289 451
e 289 456
e 289 457
e 289 461
e 289 464
e 289 471
e 289 476
e 289 478
e 289 500
e 290 292
e 290 294
e 290 295
e 290 298
e 290 299
e 290 300
e 290 305
e 290 306
e 290 307
e 290 309
e 290 310
e 290 314
e 290 315
e 290 326
e 290 328
e 290 330
e 290 336
e 290 337
e 290 343
e 290 346
e 290 347
e 290 353
e 290 357
e 290 359
e 290 360
e 290 363
e 290 366
e 290 367
e 290 371
e 290 376
e 290 377
e 290 383
e 290 384
e 290 389
e 290 392
e 290 393
e 290 396
e 290 405
e 290 408
e 290 410
e 290 412
e 290 417
e 290 421
e 290 423
e 290 427
e 290 429
e 290 437
e 290 439
e 290 440
e 290 444
e 290 446
e 290 451
e 290 455
e 290 459
e 290 461
e 290 465
e 290 468
e 290 469
e 290 473
e 290 475
e 290 477
e 290 479
e 290 480
e 290 482
e 290 485
e 290 487
e 290 490
e 290 491
e 290 492
e 290 493
e 290 494
e 290 499
e 290 500
e 291 293
e 291 294
e 291 295
e 291 299
e 291 300
e 291 302
e 291 304
e 291 308
e 291 311
e 291 313
e 291 314
e 291 315
e 291 318
e 291 319
e 291 320
e 291 322
e 291 324
e 291 326
e 291 333
e 291 334
e 291 335
e 291 342
e 291 345
e 291 346
e 291 349
e 291 351
e 291 354
e 291 358
e 291 361
e 291 363
e 291 364
e 291 367
e 291 370
e 291 376
e 291 378
e 291 381
e 291 384
e 291 387
e 291 388
e 291 389
e 291 391
e 291 394
e 291 395
e 291 401
e 291 402
e 291 407
e 291 409
e 291 414
e 291 416
e 291 419
e 291 421
e 291 427
e 291 428
e 291 432
e 291 436
e 291 437
e 291 440
e 291 442
e 291 444
e 291 446
e 291 454
e 291 456
e 291 458
e 291 459
e 291 461
e 291 462
e 291 472
e 291 474
e 291 477
e 291 482
e 291 483
e 291 492
e 291 495
e 292 295
e 292 297
e 292 299
e 292 301
e 292 304
e 292 306
e 292 307
e 292 308
e 292 309
e 292 314
e 292 319
e 292 321
e 292 324
e 292 327
e 292 329
e 292 331
e 292 333
e 292 334
e 292 335
e 292 340
e 292 341
e 292 342
e 292 343
e 292 348
e 292 349
e 292 350
e 292 351
e 292 356
e 292 358
e 292 368
e 292 369
e 292 372
e 292 373
e 292 374
e 292 376
e 292 379
e 292 380
e 292 388
e 292 389
e 292 390
e 292 392
e 292 394
e 292 397
e 292 398
e 292 400
e 292 401
e 292 407
e 292 408
e 292 409
e 292 413
e 292 416
e 292 420
e 292 421
e 292 428
e 292 430
e 292 433
e 292 435
e 292 436
e 292 438
e 292 440
e 292 441
e 292 443
e 292 452
e 292 458
e 292 461
e 292 464
e 292 466
e 292 473
e 292 474
e 292 475
e 292 476
e 292 479
e 292 486
e 292 492
e 292 493
e 293 294
e 293 298
e 293 301
e 293 310
e 293 318
e 293 326
e 293 329
e 293 334
e 293 337
e 293 338
e 293 340
e 293 346
e 293 347
e 293 374
e 293 379
e 293 382
e 293 394
e 293 399
e 293 403
e 293 405
e 293 410
e 293 425
e 293 432
e 293 433
e 293 437
e 293 438
e 293 440
e 293 442
e 293 449
e 293 450
e 293 455
e 293 464
e 293 468
e 293 475
e 293 477
e 293 480
e 293 487
e 293 489
e 293 499
e 294 299
e 294 301
e 294 302
e 294 315
e 294 322
e 294 328
e 294 330
e 294 336
e 294 345
e 294 347
e 294 351
e 294 356
e 294 361
e 294 362
e 294 366
e 294 368
e 294 369
e 294 382
e 294 386
e 294 390
e 294 399
e 294 401
e 294 403
e 294 409
e 294 410
e 294 411
e 294 412
e 294 414
e 294 418
e 294 423
e 294 425
e 294 432
e 294 434
e 294 448
e 294 450
e 294 456
e 294 461
e 294 468
e 294 471
e 294 478
e 294 482
e 294 483
e 294 489
e 294 493
e 294 499
e 295 299
e 295 305
e 295 310
e 295 311
e 295 313
e 295 315
e 295 323
e 295 328
e 295 330
e 295 334
e 295 336
e 295 337
e 295 341
e 295 345
e 295 351
e 295 364
e 295 365
e 295 370
e 295 372
e 295 377
e 295 380
e 295 381
e 295 387
e 295 395
e 295 396
e 295 401
e 295 409
e 295 410
e 295 413
e 295 415
e 295 416
e 295 420
e 295 424
e 295 426
e 295 428
e 295 430
e 295 431
e 295 434
e 295 440
e 295 454
e 295 455
e 295 463
e 295 467
e 295 469
e 295 471
e 295 473
e 295 474
e 295 476
e 295 484
e 295 485
e 295 486
e 295 487
e 295 488
e 295 492
e 295 495
e 295 496
e 295 499
e 296 298
e 296 300
e 296 301
e 296 307
e 296 308
e 296 312
e 296 314
e 296 317
e 296 318
e 296 319
e 296 320
e 296 322
e 296 325
e 296 332
e 296 335
e 296 339
e 296 341
e 296 345
e 296 346
e 296 348
e 296 350
e 296 355
e 296 357
e 296 360
e 296 364
e 296 368
e 296 371
e 296 374
e 296 375
e 296 377
e 296 379
e 296 380
e 296 387
e 296 394
e 296 397
e 296 402
e 296 405
e 296 409
e 296 411
e 296 413
e 296 415
e 296 420
e 296 426
e 296 433
e 296 436
e 296 437
e 296 440
e 296 441
e 296 444
e 296 446
e 296 449
e 296 450
e 296 452
e 296 459
e 296 465
e 296 466
e 296 467
e 296 469
e 296 470
e 296 473
e 296 476
e 296 478
e 296 479
e 296 480
e 296 482
e 296 490
e 296 491
e 296 492
e 296 493
e 296 499
e 297 299
e 297 300
e 297 302
e 297 303
e 297 309
e 297 310
e 297 313
e 297 315
e 297 317
e 297 319
e 297 322
e 297 324
e 297 329
e 297 330
e 297 333
e 297 336
e 297 340
e 297 345
e 297 349
e 297 353
e 297 355
e 297 358
e 297 362
e 297 364
e 297 373
e 297 376
e 297 380
e 297 385
e 297 387
e 297 388
e 297 389
e 297 390
e 297 391
e 297 394
e 297 398
e 297 401
e 297 408
e 297 410
e 297 411
e 297 412
e 297 414
e 297 416
e 297 423
e 297 424
e 297 425
e 297 429
e 297 434
e 297 439
e 297 440
e 297 441
e 297 442
e 297 448
e 297 453
e 297 456
e 297 459
e 297 463
e 297 467
e 297 468
e 297 470
e 297 472
e 297 474
e 297 477
e 297 480
e 297 486
e 297 487
e 297 488
e 297 489
e 297 493
e 297 498
e 297 499
e 298 307
e 298 311
e 298 316
e 298 319
e 298 320
e 298 321
e 298 327
e 298 333
e 298 334
e 298 338
e 298 345
e 298 346
e 298 353
e 298 354
e 298 355
e 298 358
e 298 359
e 298 368
e 298 371
e 298 372
e 298 374
e 298 380
e 298 384
e 298 385
e 298 398
e 298 403
e 298 404
e 298 406
e 298 411
e 298 412
e 298 413
e 298 419
e 298 425
e 298 427
e 298 433
e 298 434
e 298 436
e 298 444
e 298 446
e 298 450
e 298 451
e 298 456
e 298 457
e 298 466
e 298 467
e 298 471
e 298 475
e 298 477
e 298 486
e 298 491
e 298 492
e 298 495
e 298 496
e 298 497
e 299 303
e 299 304
e 299 314
e 299 315
e 299 317
e 299 318
e 299 319
e 299 322
e 299 323
e 299 324
e 299 326
e 299 329
e 299 331
e 299 333
e 299 334
e 299 335
e 299 339
e 299 340
e 299 343
e 299 344
e 299 346
e 299 347
e 299 353
e 299 366
e 299 373
e 299 375
e 299 379
e 299 382
e 299 383
e 299 384
e 299 386
e 299 387
e 299 389
e 299 392
e 299 396
e 299 397
e 299 398
e 299 405
e 299 409
e 299 410
e 299 424
e 299 430
e 299 433
e 299 437
e 299 438
e 299 442
e 299 444
e 299 449
e 299 453
e 299 455
e 299 457
e 299 458
e 299 459
e 299 464
e 299 465
e 299 467
e 299 476
e 299 478
e 299 483
e 299 489
e 300 304
e 300 305
e 300 318
e 300 323
e 300 327
e 300 330
e 300 331
e 300 332
e 300 335
e 300 341
e 300 344
e 300 345
e 300 346
e 300 348
e 300 351
e 300 354
e 300 355
e 300 358
e 300 361
e 300 363
e 300 366
e 300 373
e 300 376
e 300 377
e 300 382
e 300 384
e 300 391
e 300 392
e 300 394
e 300 396
e 300 401
e 300 402
e 300 411
e 300 414
e 300 427
e 300 434
e 300 442
e 300 461
e 300 462
e 300 465
e 300 467
e 300 475
e 300 478
e 300 480
e 300 481
e 300 484
e 300 485
e 300 493
e 300 494
e 300 496
e 301 302
e 301 303
e 301 305
e 301 306
e 301 311
e 301 315
e 301 318
e 301 319
e 301 321
e 301 324
e 301 326
e 301 331
e 301 332
e 301 334
e 301 337
e 301 339
e 301 340
e 301 344
e 301 350
e 301 357
e 301 361
e 301 373
e 301 381
e 301 383
e 301 387
e 301 393
e 301 395
e 301 396
e 301 401
e 301 402
e 301 406
e 301 408
e 301 409
e 301 410
e 301 416
e 301 417
e 301 424
e 301 426
e 301 429
e 301 430
e 301 432
e 301 433
e 301 435
e 301 439
e 301 444
e 301 449
e 301 450
e 301 454
e 301 455
e 301 467
e 301 481
e 301 483
e 301 485
e 301 486
e 301 490
e 301 492
e 302 303
e 302 314
e 302 319
e 302 323
e 302 326
e 302 327
e 302 333
e 302 336
e 302 338
e 302 341
e 302 343
e 302 345
e 302 348
e 302 350
e 302 351
e 302 352
e 302 355
e 302 357
e 302 361
e 302 374
e 302 381
e 302 385
e 302 386
e 302 387
e 302 390
e 302 391
e 302 396
e 302 399
e 302 400
e 302 401
e 302 403
e 302 404
e 302 405
e 302 406
e 302 409
e 302 410
e 302 414
e 302 415
e 302 420
e 302 422
e 302 423
e 302 425
e 302 427
e 302 432
e 302 433
e 302 435
e 302 437
e 302 447
e 302 451
e 302 452
e 302 455
e 302 461
e 302 462
e 302 465
e 302 466
e 302 467
e 302 470
e 302 472
e 302 474
e 302 475
e 302 476
e 302 479
e 302 481
e 302 485
e 302 486
e 302 491
e 302 493
e 302 494
e 303 306
e 303 307
e 303 312
e 303 316
e 303 317
e 303 319
e 303 321
e 303 324
e 303 325
e 303 330
e 303 331
e 303 337
e 303 343
e 303 345
e 303 346
e 303 347
e 303 352
e 303 355
e 303 369
e 303 370
e 303 374
e 303 377
e 303 380
e 303 387
e 303 391
e 303 392
e 303 396
e 303 400
e 303 403
e 303 406
e 303 409
e 303 410
e 303 411
e 303 413
e 303 416
e 303 418
e 303 422
e 303 425
e 303 431
e 303 437
e 303 441
e 303 443
e 303 444
e 303 445
e 303 456
e 303 458
e 303 459
e 303 461
e 303 466
e 303 467
e 303 470
e 303 475
e 303 481
e 303 483
e 303 489
e 303 492
e 303 493
e 303 497
e 303 500
e 304 324
e 304 326
e 304 331
e 304 332
e 304 337
e 304 339
e 304 340
e 304 345
e 304 350
e 304 357
e 304 358
e 304 362
e 304 368
e 304 372
e 304 375
e 304 378
e 304 391
e 304 396
e 304 398
e 304 403
e 304 406
e 304 407
e 304 408
e 304 410
e 304 414
e 304 418
e 304 419
e 304 422
e 304 428
e 304 434
e 304 438
e 304 441
e 304 446
e 304 450
e 304 453
e 304 455
e 304 458
e 304 460
e 304 464
e 304 468
e 304 475
e 304 479
e 304 485
e 304 491
e 304 492
e 304 493
e 304 494
e 304 496
e 305 310
e 305 318
e 305 320
e 305 321
e 305 325
e 305 332
e 305 333
e 305 334
e 305 335
e 305 338
e 305 341
e 305 346
e 305 348
e 305 351
e 305 361
e 305 369
e 305 374
e 305 375
e 305 378
e 305 379
e 305 380
e 305 385
e 305 388
e 305 389
e 305 390
e 305 392
e 305 397
e 305 398
e 305 401
e 305 402
e 305 403
e 305 405
e 305 412
e 305 416
e 305 419
e 305 423
e 305 424
e 305 431
e 305 435
e 305 439
e 305 442
e 305 447
e 305 448
e 305 452
e 305 456
e 305 458
e 305 470
e 305 473
e 305 478
e 305 482
e 305 483
e 305 485
e 305 487
e 305 488
e 305 489
e 305 494
e 305 497
e 305 498
e 305 499
e 305 500
e 306 308
e 306 310
e 306 313
e 306 318
e 306 320
e 306 326
e 306 330
e 306 333
e 306 335
e 306 336
e 306 338
e 306 339
e 306 341
e 306 342
e 306 345
e 306 349
e 306 351
e 306 353
e 306 354
e 306 357
e 306 359
e 306 361
e 306 364
e 306 365
e 306 367
e 306 373
e 306 374
e 306 377
e 306 378
e 306 379
e 306 382
e 306 383
e 306 388
e 306 390
e 306 393
e 306 394
e 306 395
e 306 404
e 306 410
e 306 412
e 306 418
e 306 419
e 306 421
e 306 423
e 306 424
e 306 425
e 306 426
e 306 427
e 306 429
e 306 432
e 306 433
e 306 438
e 306 448
e 306 449
e 306 450
e 306 452
e 306 454
e 306 456
e 306 458
e 306 465
e 306 478
e 306 482
e 306 483
e 307 311
e 307 312
e 307 316
e 307 317
e 307 318
e 307 322
e 307 327
e 307 328
e 307 329
e 307 332
e 307 333
e 307 338
e 307 346
e 307 348
e 307 351
e 307 357
e 307 360
e 307 362
e 307 363
e 307 366
e 307 374
e 307 386
e 307 388
e 307 390
e 307 395
e 307 396
e 307 400
e 307 402
e 307 403
e 307 407
e 307 410
e 307 411
e 307 414
e 307 417
e 307 419
e 307 422
e 307 425
e 307 427
e 307 428
e 307 430
e 307 437
e 307 439
e 307 441
e 307 442
e 307 445
e 307 452
e 307 454
e 307 456
e 307 460
e 307 461
e 307 462
e 307 466
e 307 472
e 307 473
e 307 481
e 307 485
e 307 486
e 307 487
e 307 491
e 307 493
e 307 498
e 307 499
e 308 314
e 308 316
e 308 320
e 308 325
e 308 326
e 308 327
e 308 330
e 308 332
e 308 334
e 308 340
e 308 343
e 308 345
e 308 346
e 308 347
e 308 349
e 308 351
e 308 352
e 308 362
e 308 364
e 308 367
e 308 369
e 308 372
e 308 375
e 308 377
e 308 380
e 308 384
e 308 391
e 308 393
e 308 401
e 308 409
e 308 410
e 308 413
e 308 422
e 308 432
e 308 433
e 308 437
e 308 439
e 308 443
e 308 449
e 308 457
e 308 458
e 308 459
e 308 461
e 308 462
e 308 467
e 308 469
e 308 472
e 308 473
e 308 475
e 308 477
e 308 480
e 308 481
e 308 482
e 308 484
e 308 485
e 308 488
e 308 489
e 308 493
e 308 496
e 308 500
e 309 312
e 309 314
e 309 321
e 309 324
e 309 325
e 309 326
e 309 330
e 309 332
e 309 338
e 309 345
e 309 349
e 309 350
e 309 362
e 309 367
e 309 368
e 309 370
e 309 371
e 309 384
e 309 388
e 309 390
e 309 391
e 309 394
e 309 399
e 309 401
e 309 405
e 309 407
e 309 414
e 309 416
e 309 419
e 309 424
e 309 425
e 309 431
e 309 432
e 309 434
e 309 440
e 309 441
e 309 442
e 309 444
e 309 446
e 309 447
e 309 449
e 309 450
e 309 454
e 309 456
e 309 460
e 309 464
e 309 470
e 309 475
e 309 478
e 309 479
e 309 483
e 309 484
e 309 485
e 309 486
e 309 490
e 309 491
e 309 492
e 309 493
e 309 494
e 309 496
e 309 498
e 309 500
e 310 313
e 310 314
e 310 315
e 310 319
e 310 323
e 310 326
e 310 330
e 310 332
e 310 336
e 310 338
e 310 341
e 310 347
e 310 351
e 310 352
e 310 353
e 310 355
e 310 356
e 310 357
e 310 365
e 310 366
e 310 369
e 310 371
e 310 375
e 310 377
e 310 381
e 310 383
e 310 386
e 310 396
e 310 406
e 310 411
e 310 412
e 310 419
e 310 427
e 310 428
e 310 436
e 310 437
e 310 443
e 310 446
e 310 448
e 310 451
e 310 453
e 310 454
e 310 459
e 310 462
e 310 463
e 310 468
e 310 470
e 310 471
e 310 476
e 310 478
e 310 482
e 310 500
e 311 312
e 311 313
e 311 320
e 311 322
e 311 324
e 311 331
e 311 333
e 311 334
e 311 336
e 311 340
e 311 344
e 311 349
e 311 350
e 311 351
e 311 359
e 311 360
e 311 366
e 311 369
e 311 370
e 311 375
e 311 391
e 311 395
e 311 402
e 311 406
e 311 412
e 311 413
e 311 417
e 311 422
e 311 423
e 311 425
e 311 431
e 311 433
e 311 437
e 311 441
e 311 443
e 311 445
e 311 449
e 311 450
e 311 452
e 311 453
e 311 455
e 311 456
e 311 461
e 311 462
e 311 464
e 311 471
e 311 475
e 311 481
e 311 487
e 311 489
e 311 491
e 311 494
e 311 495
e 311 499
e 311 500
e 312 313
e 312 317
e 312 318
e 312 319
e 312 320
e 312 329
e 312 332
e 312 335
e 312 341
e 312 343
e 312 345
e 312 351
e 312 352
e 312 354
e 312 360
e 312 363
e 312 364
e 312 366
e 312 370
e 312 374
e 312 378
e 312 381
e 312 383
e 312 386
e 312 397
e 312 405
e 312 409
e 312 411
e 312 417
e 312 418
e 312 420
e 312 421
e 312 428
e 312 431
e 312 439
e 312 442
e 312 446
e 312 455
e 312 456
e 312 457
e 312 461
e 312 462
e 312 464
e 312 465
e 312 467
e 312 469
e 312 470
e 312 472
e 312 479
e 312 480
e 312 481
e 312 482
e 312 485
e 312 486
e 312 487
e 312 489
e 312 498
e 313 317
e 313 322
e 313 328
e 313 330
e 313 332
e 313 334
e 313 344
e 313 348
e 313 353
e 313 359
e 313 365
e 313 370
e 313 372
e 313 377
e 313 379
e 313 382
e 313 383
e 313 384
e 313 389
e 313 392
e 313 395
e 313 401
e 313 402
e 313 405
e 313 414
e 313 420
e 313 422
e 313 432
e 313 435
e 313 439
e 313 440
e 313 444
e 313 446
e 313 447
e 313 450
e 313 452
e 313 458
e 313 461
e 313 465
e 313 466
e 313 468
e 313 475
e 313 478
e 313 486
e 313 492
e 313 498
e 314 317
e 314 321
e 314 322
e 314 339
e 314 340
e 314 341
e 314 342
e 314 345
e 314 348
e 314 349
e 314 355
e 314 358
e 314 359
e 314 360
e 314 364
e 314 371
e 314 373
e 314 377
e 314 381
e 314 383
e 314 384
e 314 386
e 314 392
e 314 393
e 314 394
e 314 396
e 314 399
e 314 402
e 314 404
e 314 406
e 314 409
e 314 412
e 314 413
e 314 416
e 314 420
e 314 424
e 314 425
e 314 428
e 314 431
e 314 432
e 314 433
e 314 435
e 314 440
e 314 442
e 314 446
e 314 448
e 314 449
e 314 453
e 314 463
e 314 464
e 314 467
e 314 474
e 314 475
e 314 479
e 314 481
e 314 484
e 314 486
e 314 487
e 315 322
e 315 323
e 315 324
e 315 328
e 315 330
e 315 335
e 315 336
e 315 339
e 315 347
e 315 351
e 315 356
e 315 357
e 315 359
e 315 360
e 315 365
e 315 368
e 315 369
e 315 370
e 315 373
e 315 374
e 315 378
e 315 380
e 315 389
e 315 390
e 315 391
e 315 392
e 315 394
e 315 396
e 315 397
e 315 402
e 315 411
e 315 416
e 315 421
e 315 424
e 315 426
e 315 433
e 315 434
e 315 441
e 315 443
e 315 444
e 315 446
e 315 447
e 315 459
e 315 466
e 315 467
e 315 477
e 315 480
e 315 481
e 315 483
e 315 486
e 315 489
e 315 490
e 315 491
e 315 492
e 315 495
e 315 497
e 315 500
e 316 317
e 316 324
e 316 326
e 316 328
e 316 331
e 316 333
e 316 335
e 316 343
e 316 348
e 316 353
e 316 359
e 316 360
e 316 369
e 316 378
e 316 384
e 316 389
e 316 394
e 316 397
e 316 398
e 316 399
e 316 403
e 316 407
e 316 409
e 316 410
e 316 416
e 316 417
e 316 419
e 316 423
e 316 424
e 316 427
e 316 430
e 316 433
e 316 439
e 316 440
e 316 451
e 316 454
e 316 456
e 316 459
e 316 466
e 316 467
e 316 473
e 316 474
e 316 475
e 316 484
e 316 486
e 316 489
e 316 490
e 316 496
e 317 318
e 317 320
e 317 328
e 317 329
e 317 330
e 317 331
e 317 333
e 317 342
e 317 345
e 317 348
e 317 350
e 317 351
e 317 352
e 317 354
e 317 358
e 317 359
e 317 360
e 317 363
e 317 367
e 317 369
e 317 371
e 317 376
e 317 377
e 317 381
e 317 383
e 317 384
e 317 385
e 317 386
e 317 388
e 317 391
e 317 395
e 317 396
e 317 398
e 317 399
e 317 403
e 317 407
e 317 415
e 317 421
e 317 428
e 317 429
e 317 435
e 317 445
e 317 446
e 317 447
e 317 449
e 317 454
e 317 457
e 317 461
e 317 465
e 317 470
e 317 472
e 317 475
e 317 477
e 317 480
e 317 495
e 318 320
e 318 324
e 318 326
e 318 332
e 318 334
e 318 339
e 318 341
e 318 343
e 318 349
e 318 363
e 318 366
e 318 377
e 318 378
e 318 379
e 318 380
e 318 384
e 318 385
e 318 387
e 318 389
e 318 390
e 318 394
e 318 398
e 318 399
e 318 403
e 318 413
e 318 414
e 318 416
e 318 418
e 318 420
e 318 423
e 318 430
e 318 444
e 318 446
e 318 448
e 318 449
e 318 450
e 318 453
e 318 458
e 318 462
e 318 463
e 318 467
e 318 471
e 318 473
e 318 475
e 318 483
e 318 487
e 318 489
e 318 491
e 318 492
e 318 497
e 319 327
e 319 329
e 319 330
e 319 338
e 319 340
e 319 341
e 319 348
e 319 354
e 319 356
e 319 359
e 319 366
e 319 371
e 319 389
e 319 395
e 319 396
e 319 397
e 319 398
e 319 402
e 319 404
e 319 407
e 319 408
e 319 409
e 319 410
e 319 411
e 319 413
e 319 414
e 319 418
e 319 419
e 319 427
e 319 428
e 319 431
e 319 435
e 319 441
e 319 442
e 319 443
e 319 444
e 319 445
e 319 446
e 319 450
e 319 451
e 319 461
e 319 463
e 319 466
e 319 477
e 319 478
e 319 481
e 319 482
e 319 490
e 319 493
e 319 495
e 319 496
e 319 497
e 320 322
e 320 324
e 320 325
e 320 334
e 320 335
e 320 338
e 320 343
e 320 347
e 320 350
e 320 351
e 320 352
e 320 355
e 320 361
e 320 368
e 320 371
e 320 372
e 320 375
e 320 381
e 320 384
e 320 385
e 320 386
e 320 389
e 320 393
e 320 397
e 320 398
e 320 399
e 320 402
e 320 407
e 320 410
e 320 411
e 320 412
e 320 419
e 320 421
e 320 422
e 320 426
e 320 438
e 320 451
e 320 452
e 320 453
e 320 456
e 320 460
e 320 461
e 320 462
e 320 463
e 320 470
e 320 472
e 320 473
e 320 474
e 320 478
e 320 481
e 320 485
e 320 486
e 320 496
e 320 497
e 321 323
e 321 326
e 321 337
e 321 341
e 321 343
e 321 344
e 321 345
e 321 346
e 321 347
e 321 352
e 321 353
e 321 357
e 321 358
e 321 363
e 321 370
e 321 372
e 321 380
e 321 381
e 321 384
e 321 386
e 321 388
e 321 393
e 321 395
e 321 400
e 321 401
e 321 402
e 321 404
e 321 405
e 321 414
e 321 417
e 321 420
e 321 430
e 321 432
e 321 435
e 321 447
e 321 448
e 321 454
e 321 464
e 321 466
e 321 468
e 321 472
e 321 475
e 321 477
e 321 479
e 321 480
e 321 484
e 321 487
e 321 490
e 321 492
e 321 495
e 321 499
e 321 500
e 322 325
e 322 329
e 322 332
e 322 340
e 322 343
e 322 345
e 322 346
e 322 355
e 322 358
e 322 360
e 322 367
e 322 374
e 322 375
e 322 376
e 322 382
e 322 387
e 322 392
e 322 394
e 322 396
e 322 397
e 322 398
e 322 399
e 322 400
e 322 403
e 322 405
e 322 407
e 322 409
e 322 413
e 322 414
e 322 415
e 322 420
e 322 424
e 322 429
e 322 430
e 322 436
e 322 438
e 322 439
e 322 442
e 322 446
e 322 450
e 322 451
e 322 460
e 322 465
e 322 467
e 322 468
e 322 476
e 322 478
e 322 479
e 322 484
e 322 493
e 322 495
e 322 498
e 323 324
e 323 327
e 323 329
e 323 332
e 323 333
e 323 335
e 323 345
e 323 352
e 323 353
e 323 354
e 323 355
e 323 357
e 323 363
e 323 364
e 323 369
e 323 372
e 323 373
e 323 375
e 323 377
e 323 379
e 323 380
e 323 381
e 323 382
e 323 387
e 323 389
e 323 390
e 323 391
e 323 393
e 323 396
e 323 403
e 323 404
e 323 405
e 323 406
e 323 410
e 323 412
e 323 415
e 323 417
e 323 427
e 323 429
e 323 431
e 323 437
e 323 439
e 323 442
e 323 445
e 323 450
e 323 458
e 323 459
e 323 460
e 323 467
e 323 471
e 323 472
e 323 476
e 323 478
e 323 479
e 323 482
e 323 486
e 323 488
e 323 490
e 323 498
e 324 328
e 324 329
e 324 335
e 324 340
e 324 341
e 324 347
e 324 348
e 324 350
e 324 351
e 324 352
e 324 353
e 324 358
e 324 360
e 324 365
e 324 367
e 324 372
e 324 377
e 324 378
e 324 379
e 324 381
e 324 385
e 324 387
e 324 388
e 324 393
e 324 394
e 324 395
e 324 401
e 324 403
e 324 405
e 324 408
e 324 410
e 324 411
e 324 414
e 324 417
e 324 420
e 324 426
e 324 431
e 324 442
e 324 446
e 324 447
e 324 450
e 324 452
e 324 457
e 324 468
e 324 471
e 324 476
e 324 481
e 324 482
e 324 483
e 324 485
e 324 495
e 324 500
e 325 327
e 325 331
e 325 333
e 325 336
e 325 339
e 325 341
e 325 343
e 325 347
e 325 349
e 325 351
e 325 354
e 325 358
e 325 359
e 325 361
e 325 363
e 325 365
e 325 369
e 325 374
e 325 375
e 325 376
e 325 378
e 325 381
e 325 385
e 325 386
e 325 387
e 325 388
e 325 391
e 325 392
e 325 393
e 325 394
e 325 395
e 325 402
e 325 412
e 325 413
e 325 419
e 325 421
e 325 424
e 325 425
e 325 426
e 325 430
e 325 437
e 325 438
e 325 441
e 325 442
e 325 444
e 325 446
e 325 456
e 325 457
e 325 458
e 325 461
e 325 463
e 325 467
e 325 469
e 325 474
e 325 475
e 325 477
e 325 479
e 325 483
e 325 485
e 325 486
e 325 491
e 325 493
e 325 495
e 325 500
e 326 328
e 326 329
e 326 331
e 326 340
e 326 342
e 326 345
e 326 348
e 326 349
e 326 351
e 326 353
e 326 354
e 326 357
e 326 362
e 326 367
e 326 370
e 326 376
e 326 379
e 326 380
e 326 381
e 326 391
e 326 392
e 326 394
e 326 396
e 326 398
e 326 399
e 326 400
e 326 403
e 326 412
e 326 417
e 326 418
e 326 421
e 326 422
e 326 425
e 326 430
e 326 432
e 326 435
e 326 444
e 326 450
e 326 451
e 326 452
e 326 458
e 326 460
e 326 462
e 326 463
e 326 469
e 326 471
e 326 472
e 326 473
e 326 474
e 326 478
e 326 484
e 326 485
e 326 487
e 326 490
e 326 495
e 326 500
e 327 328
e 327 330
e 327 331
e 327 334
e 327 335
e 327 341
e 327 347
e 327 350
e 327 352
e 327 363
e 327 364
e 327 365
e 327 369
e 327 373
e 327 377
e 327 378
e 327 380
e 327 381
e 327 388
e 327 391
e 327 394
e 327 396
e 327 406
e 327 409
e 327 411
e 327 413
e 327 417
e 327 419
e 327 421
e 327 423
e 327 428
e 327 434
e 327 435
e 327 436
e 327 437
e 327 438
e 327 439
e 327 442
e 327 443
e 327 444
e 327 447
e 327 450
e 327 452
e 327 453
e 327 458
e 327 459
e 327 460
e 327 462
e 327 465
e 327 469
e 327 471
e 327 473
e 327 479
e 327 484
e 327 486
e 327 488
e 327 491
e 327 494
e 327 495
e 327 496
e 327 498
e 327 499
e 328 336
e 328 339
e 328 340
e 328 353
e 328 354
e 328 355
e 328 361
e 328 366
e 328 372
e 328 375
e 328 376
e 328 377
e 328 378
e 328 379
e 328 381
e 328 384
e 328 386
e 328 388
e 328 390
e 328 391
e 328 392
e 328 401
e 328 410
e 328 411
e 328 417
e 328 421
e 328 423
e 328 424
e 328 425
e 328 441
e 328 448
e 328 450
e 328 451
e 328 452
e 328 456
e 328 460
e 328 465
e 328 466
e 328 468
e 328 469
e 328 474
e 328 477
e 328 481
e 328 482
e 328 485
e 328 486
e 328 499
e 329 330
e 329 331
e 329 332
e 329 336
e 329 338
e 329 344
e 329 347
e 329 349
e 329 351
e 329 353
e 329 356
e 329 357
e 329 358
e 329 364
e 329 365
e 329 367
e 329 369
e 329 377
e 329 383
e 329 385
e 329 389
e 329 395
e 329 408
e 329 409
e 329 421
e 329 422
e 329 427
e 329 432
e 329 436
e 329 437
e 329 438
e 329 440
e 329 444
e 329 453
e 329 462
e 329 464
e 329 471
e 329 477
e 329 482
e 329 486
e 329 488
e 329 489
e 329 498
e 329 500
e 330 337
e 330 343
e 330 347
e 330 349
e 330 351
e 330 362
e 330 365
e 330 372
e 330 375
e 330 376
e 330 377
e 330 381
e 330 384
e 330 388
e 330 391
e 330 392
e 330 395
e 330 397
e 330 401
e 330 407
e 330 409
e 330 413
e 330 416
e 330 417
e 330 424
e 330 427
e 330 428
e 330 429
e 330 432
e 330 434
e 330 435
e 330 449
e 330 456
e 330 460
e 330 463
e 330 465
e 330 472
e 330 474
e 330 476
e 330 479
e 330 482
e 330 489
e 330 491
e 330 495
e 331 336
e 331 337
e 331 341
e 331 347
e 331 349
e 331 352
e 331 353
e 331 364
e 331 367
e 331 376
e 331 377
e 331 380
e 331 383
e 331 394
e 331 395
e 331 396
e 331 400
e 331 402
e 331 404
e 331 406
e 331 408
e 331 410
e 331 413
e 331 416
e 331 418
e 331 420
e 331 424
e 331 425
e 331 427
e 331 429
e 331 430
e 331 431
e 331 432
e 331 433
e 331 439
e 331 444
e 331 445
e 331 448
e 331 450
e 331 460
e 331 461
e 331 465
e 331 467
e 331 468
e 331 472
e 331 473
e 331 479
e 331 480
e 331 488
e 331 494
e 331 495
e 331 499
e 332 337
e 332 340
e 332 341
e 332 343
e 332 346
e 332 349
e 332 362
e 332 363
e 332 364
e 332 375
e 332 376
e 332 380
e 332 390
e 332 396
e 332 397
e 332 399
e 332 401
e 332 403
e 332 406
e 332 407
e 332 413
e 332 420
e 332 422
e 332 423
e 332 430
e 332 431
e 332 432
e 332 433
e 332 434
e 332 435
e 332 438
e 332 440
e 332 443
e 332 444
e 332 446
e 332 450
e 332 452
e 332 453
e 332 459
e 332 466
e 332 467
e 332 470
e 332 472
e 332 478
e 332 480
e 332 481
e 332 487
e 332 492
e 332 493
e 332 497
e 333 335
e 333 337
e 333 339
e 333 344
e 333 349
e 333 353
e 333 354
e 333 357
e 333 361
e 333 362
e 333 366
e 333 368
e 333 369
e 333 377
e 333 378
e 333 379
e 333 382
e 333 389
e 333 392
e 333 393
e 333 397
e 333 401
e 333 402
e 333 404
e 333 408
e 333 412
e 333 413
e 333 415
e 333 416
e 333 422
e 333 423
e 333 428
e 333 432
e 333 433
e 333 435
e 333 437
e 333 449
e 333 458
e 333 462
e 333 464
e 333 470
e 333 473
e 333 475
e 333 477
e 333 478
e 333 480
e 333 481
e 333 496
e 333 498
e 333 500
e 334 335
e 334 336
e 334 340
e 334 344
e 334 346
e 334 349
e 334 352
e 334 354
e 334 360
e 334 361
e 334 364
e 334 369
e 334 371
e 334 380
e 334 382
e 334 395
e 334 396
e 334 402
e 334 403
e 334 405
e 334 408
e 334 410
e 334 416
e 334 417
e 334 422
e 334 423
e 334 425
e 334 426
e 334 430
e 334 448
e 334 450
e 334 456
e 334 466
e 334 468
e 334 469
e 334 470
e 334 471
e 334 475
e 334 476
e 334 478
e 334 480
e 334 482
e 334 485
e 334 487
e 334 492
e 334 495
e 334 498
e 335 343
e 335 345
e 335 349
e 335 350
e 335 352
e 335 356
e 335 357
e 335 358
e 335 359
e 335 360
e 335 361
e 335 362
e 335 370
e 335 391
e 335 393
e 335 396
e 335 403
e 335 404
e 335 408
e 335 410
e 335 416
e 335 417
e 335 418
e 335 421
e 335 422
e 335 425
e 335 426
e 335 433
e 335 437
e 335 442
e 335 445
e 335 446
e 335 447
e 335 448
e 335 451
e 335 457
e 335 459
e 335 463
e 335 464
e 335 465
e 335 472
e 335 474
e 335 478
e 335 482
e 335 483
e 335 484
e 335 487
e 335 488
e 335 489
e 335 490
e 335 492
e 335 500
e 336 338
e 336 341
e 336 342
e 336 343
e 336 345
e 336 347
e 336 359
e 336 364
e 336 365
e 336 367
e 336 370
e 336 371
e 336 372
e 336 376
e 336 387
e 336 394
e 336 396
e 336 398
e 336 400
e 336 402
e 336 409
e 336 416
e 336 417
e 336 421
e 336 423
e 336 428
e 336 429
e 336 430
e 336 431
e 336 434
e 336 441
e 336 443
e 336 448
e 336 452
e 336 453
e 336 455
e 336 461
e 336 464
e 336 467
e 336 468
e 336 471
e 336 480
e 336 481
e 336 483
e 336 484
e 336 488
e 336 491
e 336 492
e 336 494
e 337 343
e 337 347
e 337 349
e 337 350
e 337 353
e 337 355
e 337 356
e 337 357
e 337 359
e 337 361
e 337 362
e 337 368
e 337 369
e 337 377
e 337 380
e 337 383
e 337 387
e 337 390
e 337 391
e 337 392
e 337 399
e 337 400
e 337 401
e 337 402
e 337 409
e 337 411
e 337 415
e 337 427
e 337 437
e 337 438
e 337 439
e 337 442
e 337 444
e 337 450
e 337 457
e 337 458
e 337 462
e 337 466
e 337 469
e 337 476
e 337 479
e 337 480
e 337 487
e 337 488
e 337 489
e 337 490
e 338 340
e 338 342
e 338 343
e 338 345
e 338 354
e 338 355
e 338 357
e 338 358
e 338 366
e 338 367
e 338 374
e 338 375
e 338 377
e 338 381
e 338 383
e 338 384
e 338 385
e 338 390
e 338 391
e 338 397
e 338 398
e 338 399
e 338 402
e 338 410
e 338 411
e 338 412
e 338 414
e 338 416
e 338 419
e 338 422
e 338 435
e 338 441
e 338 442
e 338 445
e 338 448
e 338 454
e 338 455
e 338 460
e 338 461
e 338 462
e 338 466
e 338 469
e 338 471
e 338 472
e 338 474
e 338 476
e 338 477
e 338 481
e 338 484
e 338 490
e 338 492
e 338 493
e 338 495
e 338 496
e 338 499
e 339 341
e 339 344
e 339 346
e 339 354
e 339 356
e 339 358
e 339 363
e 339 365
e 339 367
e 339 369
e 339 372
e 339 375
e 339 376
e 339 377
e 339 378
e 339 380
e 339 381
e 339 395
e 339 400
e 339 402
e 339 405
e 339 406
e 339 411
e 339 414
e 339 415
e 339 417
e 339 423
e 339 430
e 339 431
e 339 432
e 339 434
e 339 440
e 339 441
e 339 446
e 339 447
e 339 449
e 339 453
e 339 456
e 339 459
e 339 464
e 339 467
e 339 470
e 339 471
e 339 472
e 339 473
e 339 479
e 339 483
e 339 485
e 339 486
e 339 489
e 339 491
e 339 499
e 340 345
e 340 347
e 340 350
e 340 351
e 340 352
e 340 357
e 340 358
e 340 360
e 340 361
e 340 362
e 340 365
e 340 376
e 340 377
e 340 378
e 340 385
e 340 388
e 340 397
e 340 403
e 340 406
e 340 408
e 340 409
e 340 411
e 340 413
e 340 416
e 340 418
e 340 420
e 340 426
e 340 430
e 340 432
e 340 434
e 340 437
e 340 439
e 340 441
e 340 445
e 340 450
e 340 451
e 340 453
e 340 455
e 340 456
e 340 464
e 340 466
e 340 467
e 340 468
e 340 469
e 340 473
e 340 474
e 340 480
e 340 481
e 340 491
e 340 493
e 340 500
e 341 343
e 341 344
e 341 349
e 341 357
e 341 360
e 341 361
e 341 366
e 341 370
e 341 372
e 341 376
e 341 378
e 341 382
e 341 384
e 341 385
e 341 389
e 341 394
e 341 395
e 341 396
e 341 398
e 341 401
e 341 407
e 341 410
e 341 413
e 341 417
e 341 419
e 341 421
e 341 427
e 341 428
e 341 431
e 341 433
e 341 440
e 341 442
e 341 446
e 341 449
e 341 452
e 341 456
e 341 457
e 341 458
e 341 460
e 341 464
e 341 468
e 341 469
e 341 473
e 341 474
e 341 475
e 341 476
e 341 483
e 341 484
e 341 490
e 341 491
e 341 493
e 341 495
e 341 498
e 342 347
e 342 349
e 342 358
e 342 366
e 342 369
e 342 370
e 342 372
e 342 393
e 342 395
e 342 398
e 342 400
e 342 403
e 342 404
e 342 405
e 342 408
e 342 411
e 342 414
e 342 415
e 342 417
e 342 420
e 342 428
e 342 430
e 342 433
e 342 438
e 342 448
e 342 452
e 342 453
e 342 454
e 342 459
e 342 466
e 342 468
e 342 472
e 342 473
e 342 478
e 342 479
e 342 480
e 342 485
e 342 486
e 342 487
e 342 489
e 342 491
e 342 497
e 343 344
e 343 348
e 343 353
e 343 355
e 343 356
e 343 357
e 343 360
e 343 366
e 343 367
e 343 368
e 343 371
e 343 374
e 343 375
e 343 378
e 343 379
e 343 381
e 343 384
e 343 386
e 343 391
e 343 393
e 343 396
e 343 399
e 343 404
e 343 405
e 343 406
e 343 407
e 343 411
e 343 412
e 343 413
e 343 415
e 343 416
e 343 417
e 343 419
e 343 426
e 343 429
e 343 430
e 343 432
e 343 433
e 343 434
e 343 436
e 343 439
e 343 440
e 343 443
e 343 445
e 343 451
e 343 456
e 343 461
e 343 462
e 343 471
e 343 476
e 343 478
e 343 485
e 343 488
e 343 491
e 343 492
e 343 493
e 343 494
e 343 496
e 343 497
e 344 349
e 344 352
e 344 358
e 344 361
e 344 365
e 344 369
e 344 372
e 344 373
e 344 375
e 344 376
e 344 377
e 344 379
e 344 380
e 344 384
e 344 385
e 344 398
e 344 401
e 344 402
e 344 406
e 344 407
e 344 408
e 344 409
e 344 412
e 344 414
e 344 419
e 344 424
e 344 426
e 344 428
e 344 431
e 344 435
e 344 440
e 344 442
e 344 445
e 344 446
e 344 448
e 344 449
e 344 456
e 344 459
e 344 461
e 344 476
e 344 480
e 344 481
e 344 487
e 344 489
e 344 491
e 344 493
e 344 494
e 345 350
e 345 354
e 345 355
e 345 357
e 345 365
e 345 366
e 345 370
e 345 374
e 345 377
e 345 384
e 345 394
e 345 396
e 345 397
e 345 398
e 345 399
e 345 403
e 345 405
e 345 406
e 345 407
e 345 413
e 345 418
e 345 423
e 345 426
e 345 429
e 345 431
e 345 433
e 345 434
e 345 436
e 345 437
e 345 439
e 345 440
e 345 443
e 345 448
e 345 454
e 345 455
e 345 463
e 345 465
e 345 468
e 345 471
e 345 472
e 345 487
e 345 491
e 345 493
e 345 495
e 345 497
e 346 348
e 346 350
e 346 356
e 346 362
e 346 364
e 346 365
e 346 369
e 346 370
e 346 371
e 346 373
e 346 374
e 346 376
e 346 377
e 346 379
e 346 380
e 346 381
e 346 382
e 346 383
e 346 385
e 346 386
e 346 396
e 346 399
e 346 400
e 346 404
e 346 407
e 346 409
e 346 414
e 346 416
e 346 417
e 346 418
e 346 422
e 346 426
e 346 427
e 346 429
e 346 430
e 346 432
e 346 433
e 346 438
e 346 439
e 346 440
e 346 441
e 346 444
e 346 446
e 346 449
e 346 457
e 346 462
e 346 464
e 346 465
e 346 470
e 346 474
e 346 475
e 346 479
e 346 484
e 346 485
e 346 490
e 346 491
e 346 494
e 346 495
e 346 496
e 346 500
e 347 348
e 347 350
e 347 352
e 347 356
e 347 359
e 347 362
e 347 366
e 347 369
e 347 372
e 347 373
e 347 375
e 347 376
e 347 377
e 347 379
e 347 390
e 347 392
e 347 396
e 347 401
e 347 405
e 347 413
e 347 414
e 347 416
e 347 418
e 347 419
e 347 422
e 347 426
e 347 433
e 347 435
e 347 437
e 347 440
e 347 451
e 347 456
e 347 461
e 347 465
e 347 470
e 347 471
e 347 474
e 347 475
e 347 476
e 347 478
e 347 479
e 347 480
e 347 489
e 347 490
e 347 499
e 348 353
e 348 359
e 348 363
e 348 368
e 348 370
e 348 371
e 348 375
e 348 380
e 348 384
e 348 389
e 348 390
e 348 392
e 348 394
e 348 395
e 348 397
e 348 399
e 348 406
e 348 407
e 348 411
e 348 415
e 348 418
e 348 420
e 348 426
e 348 435
e 348 437
e 348 438
e 348 440
e 348 441
e 348 443
e 348 447
e 348 449
e 348 450
e 348 452
e 348 454
e 348 457
e 348 461
e 348 462
e 348 463
e 348 464
e 348 466
e 348 468
e 348 469
e 348 471
e 348 475
e 348 477
e 348 479
e 348 481
e 348 484
e 348 494
e 348 497
e 349 352
e 349 353
e 349 360
e 349 361
e 349 366
e 349 367
e 349 368
e 349 369
e 349 376
e 349 378
e 349 381
e 349 386
e 349 387
e 349 388
e 349 392
e 349 393
e 349 395
e 349 399
e 349 400
e 349 406
e 349 412
e 349 415
e 349 423
e 349 424
e 349 425
e 349 427
e 349 428
e 349 435
e 349 441
e 349 444
e 349 447
e 349 448
e 349 455
e 349 465
e 349 466
e 349 467
e 349 469
e 349 475
e 349 476
e 349 480
e 349 486
e 349 487
e 349 489
e 349 490
e 349 493
e 349 495
e 349 498
e 350 351
e 350 358
e 350 359
e 350 366
e 350 367
e 350 368
e 350 370
e 350 372
e 350 373
e 350 374
e 350 378
e 350 379
e 350 382
e 350 388
e 350 389
e 350 393
e 350 394
e 350 396
e 350 403
e 350 405
e 350 406
e 350 417
e 350 426
e 350 428
e 350 431
e 350 432
e 350 440
e 350 446
e 350 448
e 350 458
e 350 464
e 350 469
e 350 471
e 350 475
e 350 479
e 350 480
e 350 482
e 350 489
e 350 492
e 350 497
e 350 500
e 351 358
e 351 362
e 351 364
e 351 371
e 351 375
e 351 378
e 351 379
e 351 380
e 351 382
e 351 383
e 351 384
e 351 390
e 351 392
e 351 393
e 351 396
e 351 398
e 351 402
e 351 404
e 351 410
e 351 412
e 351 416
e 351 425
e 351 427
e 351 430
e 351 433
e 351 444
e 351 453
e 351 456
e 351 458
e 351 460
e 351 463
e 351 464
e 351 468
e 351 470
e 351 474
e 351 477
e 351 480
e 351 482
e 351 484
e 351 486
e 351 487
e 351 488
e 351 494
e 351 499
e 352 355
e 352 356
e 352 357
e 352 359
e 352 365
e 352 366
e 352 368
e 352 369
e 352 370
e 352 375
e 352 378
e 352 379
e 352 381
e 352 384
e 352 386
e 352 387
e 352 392
e 352 394
e 352 395
e 352 396
e 352 401
e 352 402
e 352 403
e 352 408
e 352 409
e 352 418
e 352 420
e 352 421
e 352 423
e 352 424
e 352 425
e 352 430
e 352 432
e 352 434
e 352 437
e 352 438
e 352 440
e 352 441
e 352 442
e 352 446
e 352 447
e 352 453
e 352 454
e 352 463
e 352 466
e 352 467
e 352 474
e 352 475
e 352 476
e 352 477
e 352 478
e 352 479
e 352 480
e 352 481
e 352 482
e 352 485
e 352 486
e 352 491
e 352 494
e 353 357
e 353 362
e 353 367
e 353 371
e 353 373
e 353 375
e 353 383
e 353 388
e 353 395
e 353 397
e 353 400
e 353 401
e 353 410
e 353 412
e 353 413
e 353 414
e 353 415
e 353 426
e 353 429
e 353 430
e 353 439
e 353 441
e 353 442
e 353 444
e 353 452
e 353 453
e 353 457
e 353 462
e 353 463
e 353 465
e 353 466
e 353 469
e 353 473
e 353 474
e 353 475
e 353 477
e 353 481
e 353 483
e 353 485
e 353 487
e 353 488
e 353 490
e 353 491
e 353 497
e 354 355
e 354 356
e 354 359
e 354 360
e 354 362
e 354 364
e 354 365
e 354 372
e 354 373
e 354 375
e 354 376
e 354 377
e 354 379
e 354 382
e 354 383
e 354 389
e 354 391
e 354 393
e 354 394
e 354 395
e 354 397
e 354 398
e 354 401
e 354 409
e 354 411
e 354 412
e 354 414
e 354 419
e 354 422
e 354 429
e 354 433
e 354 437
e 354 438
e 354 448
e 354 451
e 354 452
e 354 455
e 354 459
e 354 461
e 354 472
e 354 475
e 354 478
e 354 484
e 354 492
e 354 493
e 355 360
e 355 362
e 355 365
e 355 366
e 355 368
e 355 375
e 355 377
e 355 378
e 355 384
e 355 388
e 355 395
e 355 398
e 355 403
e 355 409
e 355 425
e 355 426
e 355 428
e 355 429
e 355 437
e 355 441
e 355 442
e 355 443
e 355 445
e 355 449
e 355 450
e 355 454
e 355 464
e 355 466
e 355 474
e 355 477
e 355 479
e 355 482
e 355 484
e 355 495
e 355 496
e 355 498
e 355 500
e 356 359
e 356 378
e 356 379
e 356 383
e 356 384
e 356 386
e 356 387
e 356 392
e 356 404
e 356 405
e 356 407
e 356 408
e 356 411
e 356 413
e 356 414
e 356 417
e 356 421
e 356 422
e 356 424
e 356 427
e 356 428
e 356 432
e 356 434
e 356 443
e 356 447
e 356 448
e 356 451
e 356 452
e 356 453
e 356 461
e 356 463
e 356 466
e 356 468
e 356 469
e 356 474
e 356 475
e 356 479
e 356 482
e 356 488
e 356 492
e 356 493
e 356 496
e 357 361
e 357 362
e 357 363
e 357 364
e 357 365
e 357 366
e 357 374
e 357 378
e 357 384
e 357 385
e 357 388
e 357 390
e 357 391
e 357 395
e 357 396
e 357 398
e 357 404
e 357 406
e 357 407
e 357 409
e 357 410
e 357 411
e 357 412
e 357 418
e 357 420
e 357 422
e 357 424
e 357 428
e 357 430
e 357 431
e 357 433
e 357 437
e 357 438
e 357 440
e 357 441
e 357 442
e 357 444
e 357 445
e 357 448
e 357 449
e 357 453
e 357 456
e 357 457
e 357 460
e 357 462
e 357 467
e 357 470
e 357 473
e 357 475
e 357 477
e 357 478
e 357 480
e 357 481
e 357 483
e 357 484
e 357 486
e 357 489
e 357 490
e 357 492
e 358 359
e 358 370
e 358 373
e 358 374
e 358 375
e 358 380
e 358 382
e 358 383
e 358 388
e 358 392
e 358 399
e 358 402
e 358 404
e 358 405
e 358 410
e 358 413
e 358 414
e 358 417
e 358 418
e 358 421
e 358 423
e 358 424
e 358 428
e 358 439
e 358 440
e 358 443
e 358 447
e 358 448
e 358 450
e 358 452
e 358 453
e 358 454
e 358 464
e 358 468
e 358 469
e 358 471
e 358 478
e 358 482
e 358 485
e 358 487
e 358 488
e 358 496
e 359 362
e 359 363
e 359 367
e 359 368
e 359 369
e 359 371
e 359 372
e 359 373
e 359 379
e 359 381
e 359 383
e 359 384
e 359 385
e 359 386
e 359 399
e 359 400
e 359 402
e 359 408
e 359 409
e 359 416
e 359 420
e 359 421
e 359 422
e 359 426
e 359 430
e 359 432
e 359 434
e 359 440
e 359 441
e 359 443
e 359 452
e 359 457
e 359 462
e 359 467
e 359 472
e 359 481
e 359 483
e 359 485
e 359 488
e 359 491
e 359 492
e 359 493
e 360 362
e 360 364
e 360 365
e 360 366
e 360 370
e 360 372
e 360 379
e 360 384
e 360 387
e 360 396
e 360 398
e 360 399
e 360 400
e 360 401
e 360 410
e 360 416
e 360 419
e 360 424
e 360 428
e 360 432
e 360 433
e 360 436
e 360 438
e 360 447
e 360 448
e 360 449
e 360 453
e 360 458
e 360 466
e 360 472
e 360 473
e 360 479
e 360 481
e 360 484
e 360 485
e 360 492
e 360 497
e 360 498
e 360 500
e 361 363
e 361 369
e 361 370
e 361 377
e 361 396
e 361 414
e 361 418
e 361 432
e 361 435
e 361 436
e 361 437
e 361 441
e 361 452
e 361 454
e 361 455
e 361 456
e 361 457
e 361 462
e 361 463
e 361 472
e 361 478
e 361 480
e 361 481
e 361 484
e 361 491
e 361 496
e 361 500
e 362 364
e 362 367
e 362 371
e 362 373
e 362 375
e 362 377
e 362 383
e 362 385
e 362 388
e 362 401
e 362 404
e 362 406
e 362 411
e 362 413
e 362 414
e 362 420
e 362 428
e 362 432
e 362 436
e 362 439
e 362 441
e 362 443
e 362 444
e 362 445
e 362 447
e 362 453
e 362 454
e 362 460
e 362 465
e 362 467
e 362 472
e 362 473
e 362 475
e 362 481
e 362 482
e 362 486
e 362 488
e 362 496
e 363 369
e 363 370
e 363 371
e 363 372
e 363 382
e 363 386
e 363 387
e 363 391
e 363 396
e 363 397
e 363 400
e 363 401
e 363 402
e 363 403
e 363 406
e 363 407
e 363 408
e 363 410
e 363 411
e 363 412
e 363 415
e 363 416
e 363 418
e 363 422
e 363 425
e 363 427
e 363 429
e 363 438
e 363 441
e 363 449
e 363 450
e 363 452
e 363 454
e 363 456
e 363 463
e 363 464
e 363 471
e 363 476
e 363 479
e 363 481
e 363 483
e 363 484
e 363 488
e 363 490
e 363 491
e 363 495
e 363 496
e 364 367
e 364 369
e 364 370
e 364 373
e 364 374
e 364 380
e 364 381
e 364 389
e 364 395
e 364 397
e 364 398
e 364 399
e 364 404
e 364 407
e 364 408
e 364 410
e 364 411
e 364 413
e 364 419
e 364 421
e 364 425
e 364 426
e 364 430
e 364 434
e 364 436
e 364 437
e 364 439
e 364 441
e 364 442
e 364 443
e 364 450
e 364 454
e 364 464
e 364 465
e 364 470
e 364 472
e 364 473
e 364 478
e 364 480
e 364 487
e 364 488
e 364 493
e 365 366
e 365 370
e 365 374
e 365 381
e 365 384
e 365 386
e 365 390
e 365 393
e 365 396
e 365 409
e 365 410
e 365 413
e 365 414
e 365 415
e 365 416
e 365 419
e 365 420
e 365 426
e 365 429
e 365 431
e 365 433
e 365 437
e 365 442
e 365 450
e 365 451
e 365 453
e 365 454
e 365 455
e 365 460
e 365 464
e 365 465
e 365 469
e 365 479
e 365 480
e 365 483
e 365 484
e 365 486
e 365 490
e 365 491
e 365 492
e 365 494
e 365 496
e 365 498
e 365 500
e 366 370
e 366 371
e 366 379
e 366 383
e 366 387
e 366 391
e 366 398
e 366 399
e 366 400
e 366 407
e 366 409
e 366 411
e 366 419
e 366 423
e 366 424
e 366 426
e 366 427
e 366 435
e 366 436
e 366 440
e 366 445
e 366 447
e 366 448
e 366 449
e 366 463
e 366 466
e 366 471
e 366 472
e 366 474
e 366 484
e 366 488
e 366 490
e 366 496
e 366 498
e 366 499
e 367 368
e 367 370
e 367 375
e 367 376
e 367 378
e 367 379
e 367 380
e 367 382
e 367 391
e 367 392
e 367 397
e 367 399
e 367 405
e 367 409
e 367 414
e 367 416
e 367 421
e 367 422
e 367 424
e 367 426
e 367 428
e 367 430
e 367 433
e 367 438
e 367 445
e 367 446
e 367 448
e 367 451
e 367 454
e 367 458
e 367 462
e 367 463
e 367 465
e 367 466
e 367 472
e 367 478
e 367 479
e 367 480
e 367 481
e 367 484
e 367 485
e 367 487
e 367 490
e 367 495
e 367 496
e 367 500
e 368 371
e 368 377
e 368 378
e 368 382
e 368 385
e 368 388
e 368 391
e 368 399
e 368 400
e 368 403
e 368 405
e 368 409
e 368 410
e 368 411
e 368 419
e 368 430
e 368 432
e 368 439
e 368 449
e 368 454
e 368 459
e 368 464
e 368 475
e 368 478
e 368 483
e 368 484
e 368 486
e 368 487
e 368 494
e 368 495
e 368 496
e 368 500
e 369 375
e 369 383
e 369 386
e 369 389
e 369 390
e 369 395
e 369 402
e 369 403
e 369 413
e 369 416
e 369 417
e 369 418
e 369 420
e 369 421
e 369 422
e 369 423
e 369 425
e 369 426
e 369 429
e 369 432
e 369 441
e 369 442
e 369 448
e 369 451
e 369 457
e 369 465
e 369 468
e 369 476
e 369 479
e 369 489
e 369 493
e 370 377
e 370 381
e 370 382
e 370 386
e 370 389
e 370 394
e 370 396
e 370 397
e 370 398
e 370 400
e 370 401
e 370 402
e 370 406
e 370 407
e 370 420
e 370 424
e 370 426
e 370 432
e 370 434
e 370 435
e 370 437
e 370 441
e 370 442
e 370 445
e 370 455
e 370 456
e 370 458
e 370 461
e 370 467
e 370 468
e 370 470
e 370 471
e 370 472
e 370 473
e 370 477
e 370 479
e 370 480
e 370 481
e 370 486
e 370 487
e 370 488
e 370 493
e 371 382
e 371 383
e 371 388
e 371 393
e 371 396
e 371 399
e 371 400
e 371 405
e 371 407
e 371 408
e 371 409
e 371 411
e 371 417
e 371 418
e 371 422
e 371 427
e 371 430
e 371 432
e 371 434
e 371 436
e 371 438
e 371 443
e 371 444
e 371 445
e 371 447
e 371 448
e 371 449
e 371 450
e 371 453
e 371 456
e 371 459
e 371 460
e 371 461
e 371 465
e 371 466
e 371 470
e 371 473
e 371 476
e 371 481
e 371 482
e 371 483
e 371 484
e 371 488
e 371 490
e 371 491
e 371 493
e 371 495
e 372 377
e 372 381
e 372 382
e 372 390
e 372 398
e 372 400
e 372 404
e 372 405
e 372 406
e 372 409
e 372 410
e 372 412
e 372 419
e 372 420
e 372 426
e 372 430
e 372 433
e 372 437
e 372 439
e 372 441
e 372 442
e 372 445
e 372 446
e 372 451
e 372 454
e 372 457
e 372 458
e 372 459
e 372 460
e 372 463
e 372 464
e 372 467
e 372 468
e 372 469
e 372 472
e 372 473
e 372 477
e 372 478
e 372 479
e 372 481
e 372 486
e 372 489
e 372 496
e 372 500
e 373 374
e 373 388
e 373 392
e 373 396
e 373 397
e 373 401
e 373 402
e 373 405
e 373 408
e 373 411
e 373 417
e 373 419
e 373 424
e 373 426
e 373 428
e 373 429
e 373 430
e 373 436
e 373 440
e 373 443
e 373 447
e 373 458
e 373 461
e 373 466
e 373 467
e 373 470
e 373 471
e 373 481
e 373 489
e 373 491
e 373 496
e 373 497
e 373 498
e 373 499
e 374 378
e 374 381
e 374 382
e 374 387
e 374 389
e 374 391
e 374 394
e 374 397
e 374 399
e 374 401
e 374 405
e 374 406
e 374 410
e 374 411
e 374 413
e 374 418
e 374 419
e 374 422
e 374 423
e 374 425
e 374 428
e 374 429
e 374 430
e 374 434
e 374 436
e 374 438
e 374 439
e 374 442
e 374 448
e 374 450
e 374 455
e 374 456
e 374 463
e 374 465
e 374 466
e 374 467
e 374 469
e 374 472
e 374 474
e 374 479
e 374 480
e 374 481
e 374 483
e 374 484
e 374 485
e 374 488
e 374 491
e 374 492
e 374 497
e 374 500
e 375 378
e 375 381
e 375 383
e 375 386
e 375 387
e 375 389
e 375 391
e 375 393
e 375 394
e 375 397
e 375 398
e 375 399
e 375 401
e 375 402
e 375 403
e 375 404
e 375 405
e 375 408
e 375 417
e 375 418
e 375 419
e 375 422
e 375 426
e 375 432
e 375 436
e 375 438
e 375 443
e 375 444
e 375 452
e 375 457
e 375 458
e 375 459
e 375 462
e 375 463
e 375 465
e 375 467
e 375 470
e 375 478
e 375 483
e 375 495
e 375 497
e 376 379
e 376 382
e 376 387
e 376 391
e 376 393
e 376 400
e 376 403
e 376 404
e 376 405
e 376 411
e 376 413
e 376 414
e 376 424
e 376 425
e 376 426
e 376 427
e 376 430
e 376 436
e 376 438
e 376 439
e 376 441
e 376 448
e 376 449
e 376 450
e 376 460
e 376 464
e 376 465
e 376 467
e 376 470
e 376 472
e 376 477
e 376 478
e 376 482
e 376 486
e 376 489
e 376 492
e 376 495
e 376 497
e 376 499
e 376 500
e 377 379
e 377 385
e 377 389
e 377 392
e 377 395
e 377 396
e 377 398
e 377 399
e 377 400
e 377 403
e 377 406
e 377 408
e 377 409
e 377 412
e 377 414
e 377 415
e 377 425
e 377 426
e 377 438
e 377 442
e 377 444
e 377 451
e 377 457
e 377 459
e 377 460
e 377 463
e 377 465
e 377 474
e 377 475
e 377 477
e 377 479
e 377 480
e 377 485
e 377 488
e 377 490
e 377 494
e 377 495
e 377 496
e 377 498
e 377 499
e 378 379
e 378 380
e 378 384
e 378 386
e 378 387
e 378 389
e 378 391
e 378 392
e 378 394
e 378 396
e 378 397
e 378 398
e 378 412
e 378 414
e 378 416
e 378 419
e 378 420
e 378 421
e 378 422
e 378 423
e 378 425
e 378 427
e 378 430
e 378 435
e 378 439
e 378 444
e 378 446
e 378 447
e 378 456
e 378 457
e 378 461
e 378 464
e 378 465
e 378 468
e 378 470
e 378 472
e 378 474
e 378 475
e 378 477
e 378 484
e 378 485
e 378 487
e 378 491
e 378 492
e 378 500
e 379 388
e 379 400
e 379 408
e 379 414
e 379 415
e 379 416
e 379 417
e 379 429
e 379 449
e 379 450
e 379 453
e 379 454
e 379 465
e 379 467
e 379 474
e 379 475
e 379 478
e 379 480
e 379 487
e 379 488
e 379 494
e 379 495
e 380 389
e 380 392
e 380 395
e 380 398
e 380 402
e 380 404
e 380 406
e 380 409
e 380 414
e 380 415
e 380 417
e 380 419
e 380 422
e 380 423
e 380 426
e 380 430
e 380 431
e 380 434
e 380 436
e 380 438
e 380 439
e 380 440
e 380 441
e 380 443
e 380 445
e 380 452
e 380 462
e 380 464
e 380 465
e 380 466
e 380 471
e 380 472
e 380 473
e 380 475
e 380 477
e 380 479
e 380 482
e 380 483
e 380 484
e 380 488
e 380 492
e 380 493
e 380 494
e 380 497
e 380 498
e 381 390
e 381 393
e 381 396
e 381 398
e 381 400
e 381 401
e 381 404
e 381 405
e 381 407
e 381 408
e 381 416
e 381 418
e 381 422
e 381 423
e 381 432
e 381 433
e 381 435
e 381 439
e 381 440
e 381 446
e 381 455
e 381 456
e 381 457
e 381 459
e 381 465
e 381 471
e 381 472
e 381 473
e 381 480
e 381 482
e 381 487
e 381 489
e 381 491
e 381 494
e 381 496
e 381 497
e 381 498
e 382 391
e 382 395
e 382 401
e 382 407
e 382 416
e 382 421
e 382 422
e 382 424
e 382 429
e 382 432
e 382 434
e 382 435
e 382 442
e 382 450
e 382 451
e 382 454
e 382 455
e 382 461
e 382 466
e 382 470
e 382 473
e 382 475
e 382 476
e 382 477
e 382 479
e 382 484
e 382 490
e 382 494
e 382 496
e 382 497
e 382 498
e 383 385
e 383 388
e 383 390
e 383 392
e 383 396
e 383 398
e 383 401
e 383 402
e 383 404
e 383 408
e 383 409
e 383 410
e 383 411
e 383 412
e 383 413
e 383 414
e 383 418
e 383 419
e 383 424
e 383 426
e 383 430
e 383 431
e 383 432
e 383 433
e 383 436
e 383 438
e 383 440
e 383 445
e 383 451
e 383 453
e 383 454
e 383 461
e 383 462
e 383 467
e 383 469
e 383 471
e 383 473
e 383 474
e 383 477
e 383 478
e 383 483
e 383 484
e 383 489
e 383 492
e 383 493
e 383 496
e 384 387
e 384 397
e 384 399
e 384 402
e 384 403
e 384 412
e 384 416
e 384 420
e 384 421
e 384 422
e 384 423
e 384 427
e 384 431
e 384 433
e 384 443
e 384 446
e 384 449
e 384 452
e 384 454
e 384 459
e 384 460
e 384 462
e 384 466
e 384 469
e 384 471
e 384 474
e 384 475
e 384 479
e 384 487
e 384 488
e 384 493
e 384 496
e 385 387
e 385 390
e 385 392
e 385 394
e 385 395
e 385 398
e 385 400
e 385 404
e 385 411
e 385 412
e 385 414
e 385 416
e 385 417
e 385 418
e 385 420
e 385 424
e 385 426
e 385 428
e 385 430
e 385 433
e 385 436
e 385 438
e 385 442
e 385 443
e 385 444
e 385 445
e 385 448
e 385 455
e 385 456
e 385 457
e 385 458
e 385 460
e 385 463
e 385 464
e 385 473
e 385 475
e 385 478
e 385 482
e 385 485
e 385 487
e 385 489
e 385 492
e 385 497
e 385 499
e 386 388
e 386 393
e 386 395
e 386 396
e 386 397
e 386 398
e 386 402
e 386 407
e 386 411
e 386 412
e 386 417
e 386 418
e 386 419
e 386 422
e 386 423
e 386 425
e 386 426
e 386 428
e 386 429
e 386 433
e 386 440
e 386 446
e 386 448
e 386 453
e 386 454
e 386 455
e 386 456
e 386 458
e 386 459
e 386 464
e 386 465
e 386 474
e 386 484
e 386 486
e 386 487
e 386 489
e 386 490
e 386 493
e 386 495
e 386 497
e 386 498
e 386 500
e 387 393
e 387 394
e 387 396
e 387 399
e 387 400
e 387 410
e 387 417
e 387 418
e 387 425
e 387 433
e 387 438
e 387 440
e 387 441
e 387 445
e 387 451
e 387 456
e 387 458
e 387 463
e 387 469
e 387 470
e 387 472
e 387 474
e 387 476
e 387 477
e 387 478
e 387 480
e 387 481
e 387 482
e 387 484
e 387 486
e 387 491
e 387 492
e 387 496
e 387 497
e 387 498
e 387 500
e 388 389
e 388 392
e 388 393
e 388 394
e 388 403
e 388 406
e 388 410
e 388 423
e 388 428
e 388 429
e 388 433
e 388 436
e 388 439
e 388 441
e 388 443
e 388 444
e 388 460
e 388 462
e 388 466
e 388 470
e 388 473
e 388 478
e 388 479
e 388 480
e 388 485
e 388 487
e 388 491
e 388 495
e 388 498
e 389 394
e 389 398
e 389 400
e 389 404
e 389 406
e 389 408
e 389 414
e 389 416
e 389 419
e 389 420
e 389 422
e 389 424
e 389 425
e 389 430
e 389 433
e 389 437
e 389 441
e 389 451
e 389 452
e 389 453
e 389 454
e 389 455
e 389 456
e 389 465
e 389 468
e 389 470
e 389 472
e 389 473
e 389 477
e 389 478
e 389 480
e 389 481
e 389 483
e 389 484
e 389 488
e 389 490
e 389 494
e 390 393
e 390 395
e 390 397
e 390 398
e 390 400
e 390 403
e 390 405
e 390 410
e 390 413
e 390 414
e 390 415
e 390 419
e 390 425
e 390 426
e 390 432
e 390 433
e 390 437
e 390 446
e 390 454
e 390 457
e 390 466
e 390 468
e 390 471
e 390 474
e 390 484
e 390 494
e 390 495
e 390 496
e 390 498
e 390 499
e 391 395
e 391 397
e 391 398
e 391 399
e 391 404
e 391 406
e 391 410
e 391 411
e 391 415
e 391 418
e 391 421
e 391 423
e 391 424
e 391 426
e 391 427
e 391 434
e 391 435
e 391 436
e 391 437
e 391 439
e 391 441
e 391 443
e 391 445
e 391 450
e 391 451
e 391 454
e 391 456
e 391 457
e 391 459
e 391 463
e 391 464
e 391 474
e 391 477
e 391 479
e 391 480
e 391 482
e 391 488
e 391 490
e 391 492
e 391 493
e 391 494
e 391 496
e 391 500
e 392 393
e 392 398
e 392 400
e 392 402
e 392 407
e 392 416
e 392 417
e 392 421
e 392 426
e 392 428
e 392 430
e 392 431
e 392 437
e 392 442
e 392 451
e 392 454
e 392 455
e 392 465
e 392 466
e 392 469
e 392 478
e 392 479
e 392 486
e 392 500
e 393 399
e 393 402
e 393 404
e 393 413
e 393 416
e 393 422
e 393 427
e 393 429
e 393 431
e 393 438
e 393 439
e 393 441
e 393 444
e 393 447
e 393 449
e 393 450
e 393 451
e 393 452
e 393 454
e 393 459
e 393 463
e 393 464
e 393 465
e 393 466
e 393 467
e 393 468
e 393 469
e 393 471
e 393 472
e 393 475
e 393 477
e 393 481
e 393 487
e 393 489
e 393 491
e 393 494
e 393 495
e 393 496
e 393 497
e 393 499
e 394 395
e 394 404
e 394 408
e 394 415
e 394 420
e 394 421
e 394 423
e 394 424
e 394 425
e 394 426
e 394 427
e 394 428
e 394 431
e 394 437
e 394 443
e 394 444
e 394 448
e 394 449
e 394 451
e 394 452
e 394 464
e 394 467
e 394 474
e 394 475
e 394 477
e 394 478
e 394 479
e 394 480
e 394 481
e 394 486
e 394 489
e 394 490
e 394 494
e 394 498
e 395 396
e 395 399
e 395 401
e 395 406
e 395 411
e 395 415
e 395 416
e 395 418
e 395 422
e 395 424
e 395 426
e 395 429
e 395 441
e 395 442
e 395 445
e 395 450
e 395 455
e 395 458
e 395 460
e 395 461
e 395 462
e 395 463
e 395 469
e 395 470
e 395 471
e 395 473
e 395 474
e 395 483
e 395 484
e 395 485
e 395 490
e 395 491
e 395 496
e 396 398
e 396 400
e 396 402
e 396 403
e 396 405
e 396 407
e 396 413
e 396 418
e 396 420
e 396 433
e 396 434
e 396 437
e 396 439
e 396 440
e 396 441
e 396 442
e 396 447
e 396 451
e 396 453
e 396 460
e 396 464
e 396 466
e 396 470
e 396 472
e 396 473
e 396 477
e 396 478
e 396 484
e 396 493
e 396 495
e 396 498
e 396 499
e 397 398
e 397 400
e 397 401
e 397 403
e 397 410
e 397 411
e 397 412
e 397 417
e 397 419
e 397 420
e 397 422
e 397 425
e 397 428
e 397 434
e 397 437
e 397 438
e 397 443
e 397 444
e 397 445
e 397 456
e 397 457
e 397 458
e 397 460
e 397 461
e 397 464
e 397 470
e 397 484
e 397 488
e 397 489
e 397 491
e 397 498
e 398 401
e 398 402
e 398 403
e 398 404
e 398 410
e 398 413
e 398 415
e 398 424
e 398 427
e 398 433
e 398 441
e 398 444
e 398 447
e 398 449
e 398 453
e 398 456
e 398 465
e 398 467
e 398 472
e 398 473
e 398 477
e 398 478
e 398 485
e 398 488
e 398 493
e 398 495
e 398 500
e 399 405
e 399 407
e 399 410
e 399 411
e 399 425
e 399 432
e 399 440
e 399 441
e 399 442
e 399 443
e 399 447
e 399 449
e 399 454
e 399 458
e 399 461
e 399 468
e 399 470
e 399 472
e 399 475
e 399 477
e 399 481
e 399 488
e 399 489
e 399 495
e 399 496
e 399 497
e 399 499
e 400 401
e 400 405
e 400 406
e 400 408
e 400 411
e 400 413
e 400 416
e 400 419
e 400 424
e 400 438
e 400 439
e 400 450
e 400 454
e 400 455
e 400 457
e 400 458
e 400 467
e 400 475
e 400 476
e 400 477
e 400 480
e 400 484
e 400 487
e 400 488
e 400 493
e 400 496
e 400 500
e 401 404
e 401 406
e 401 407
e 401 428
e 401 431
e 401 432
e 401 434
e 401 435
e 401 436
e 401 442
e 401 445
e 401 447
e 401 452
e 401 453
e 401 455
e 401 459
e 401 462
e 401 468
e 401 471
e 401 474
e 401 475
e 401 476
e 401 477
e 401 486
e 401 492
e 401 499
e 402 403
e 402 408
e 402 417
e 402 418
e 402 421
e 402 423
e 402 429
e 402 434
e 402 436
e 402 438
e 402 440
e 402 441
e 402 442
e 402 451
e 402 452
e 402 454
e 402 459
e 402 464
e 402 467
e 402 470
e 402 474
e 402 475
e 402 478
e 402 483
e 402 484
e 402 485
e 402 486
e 402 487
e 402 490
e 402 494
e 402 496
e 402 497
e 402 498
e 402 500
e 403 405
e 403 407
e 403 412
e 403 415
e 403 416
e 403 418
e 403 419
e 403 436
e 403 437
e 403 446
e 403 449
e 403 450
e 403 454
e 403 460
e 403 465
e 403 481
e 403 482
e 403 487
e 403 488
e 403 490
e 403 491
e 403 494
e 403 497
e 403 499
e 404 406
e 404 407
e 404 409
e 404 410
e 404 411
e 404 414
e 404 415
e 404 417
e 404 418
e 404 421
e 404 422
e 404 428
e 404 429
e 404 432
e 404 436
e 404 443
e 404 450
e 404 455
e 404 457
e 404 464
e 404 465
e 404 467
e 404 475
e 404 476
e 404 479
e 404 486
e 404 489
e 404 490
e 404 494
e 404 496
e 404 500
e 405 411
e 405 419
e 405 421
e 405 424
e 405 425
e 405 428
e 405 429
e 405 430
e 405 431
e 405 433
e 405 438
e 405 439
e 405 446
e 405 447
e 405 448
e 405 449
e 405 451
e 405 454
e 405 456
e 405 457
e 405 460
e 405 463
e 405 465
e 405 470
e 405 471
e 405 472
e 405 478
e 405 480
e 405 481
e 405 486
e 405 487
e 405 489
e 405 490
e 405 491
e 405 495
e 406 407
e 406 408
e 406 409
e 406 414
e 406 415
e 406 416
e 406 419
e 406 421
e 406 422
e 406 425
e 406 434
e 406 442
e 406 445
e 406 452
e 406 458
e 406 462
e 406 464
e 406 472
e 406 474
e 406 475
e 406 481
e 406 488
e 406 490
e 406 497
e 406 500
e 407 413
e 407 414
e 407 415
e 407 417
e 407 421
e 407 422
e 407 427
e 407 428
e 407 437
e 407 441
e 407 443
e 407 445
e 407 449
e 407 456
e 407 457
e 407 461
e 407 465
e 407 471
e 407 472
e 407 476
e 407 480
e 407 483
e 407 484
e 407 486
e 407 487
e 407 488
e 407 489
e 407 491
e 407 492
e 407 495
e 407 499
e 408 409
e 408 416
e 408 417
e 408 418
e 408 420
e 408 423
e 408 428
e 408 438
e 408 442
e 408 445
e 408 448
e 408 454
e 408 457
e 408 464
e 408 471
e 408 473
e 408 477
e 408 482
e 408 485
e 408 490
e 408 491
e 408 494
e 408 495
e 408 497
e 409 411
e 409 412
e 409 418
e 409 420
e 409 424
e 409 426
e 409 437
e 409 443
e 409 446
e 409 449
e 409 452
e 409 453
e 409 455
e 409 459
e 409 460
e 409 463
e 409 464
e 409 477
e 409 478
e 409 480
e 409 481
e 409 482
e 409 486
e 409 491
e 409 492
e 410 425
e 410 430
e 410 434
e 410 435
e 410 438
e 410 439
e 410 449
e 410 453
e 410 457
e 410 463
e 410 464
e 410 466
e 410 470
e 410 474
e 410 475
e 410 481
e 410 484
e 410 488
e 410 489
e 410 490
e 410 491
e 410 493
e 410 494
e 410 495
e 410 498
e 411 414
e 411 417
e 411 422
e 411 428
e 411 435
e 411 436
e 411 441
e 411 446
e 411 447
e 411 448
e 411 453
e 411 457
e 411 461
e 411 462
e 411 478
e 411 479
e 411 480
e 411 484
e 411 486
e 411 488
e 411 491
e 411 494
e 411 496
e 411 500
e 412 415
e 412 418
e 412 422
e 412 423
e 412 427
e 412 429
e 412 435
e 412 440
e 412 441
e 412 446
e 412 447
e 412 448
e 412 449
e 412 453
e 412 454
e 412 458
e 412 461
e 412 462
e 412 464
e 412 466
e 412 472
e 412 474
e 412 477
e 412 482
e 412 484
e 412 486
e 412 487
e 412 488
e 412 490
e 413 414
e 413 416
e 413 418
e 413 420
e 413 422
e 413 425
e 413 429
e 413 435
e 413 437
e 413 438
e 413 442
e 413 444
e 413 445
e 413 447
e 413 448
e 413 455
e 413 456
e 413 464
e 413 466
e 413 468
e 413 475
e 413 479
e 413 483
e 413 485
e 413 487
e 413 488
e 413 494
e 413 498
e 413 500
e 414 421
e 414 423
e 414 427
e 414 428
e 414 431
e 414 432
e 414 434
e 414 436
e 414 437
e 414 438
e 414 441
e 414 444
e 414 449
e 414 450
e 414 451
e 414 453
e 414 457
e 414 465
e 414 467
e 414 469
e 414 470
e 414 471
e 414 473
e 414 474
e 414 479
e 414 480
e 414 482
e 414 484
e 414 488
e 414 490
e 414 492
e 415 417
e 415 421
e 415 423
e 415 424
e 415 427
e 415 436
e 415 440
e 415 444
e 415 447
e 415 448
e 415 451
e 415 452
e 415 453
e 415 456
e 415 459
e 415 460
e 415 461
e 415 462
e 415 463
e 415 465
e 415 466
e 415 468
e 415 475
e 415 477
e 415 478
e 415 480
e 415 481
e 415 483
e 415 484
e 415 485
e 415 499
e 416 417
e 416 422
e 416 426
e 416 439
e 416 440
e 416 445
e 416 446
e 416 447
e 416 450
e 416 453
e 416 458
e 416 464
e 416 466
e 416 467
e 416 468
e 416 469
e 416 470
e 416 472
e 416 474
e 416 477
e 416 483
e 416 487
e 416 489
e 416 497
e 416 498
e 416 500
e 417 419
e 417 428
e 417 430
e 417 431
e 417 435
e 417 440
e 417 441
e 417 442
e 417 443
e 417 451
e 417 452
e 417 453
e 417 455
e 417 458
e 417 461
e 417 464
e 417 466
e 417 470
e 417 478
e 417 481
e 417 482
e 417 485
e 417 493
e 417 495
e 417 499
e 417 500
e 418 421
e 418 424
e 418 429
e 418 430
e 418 433
e 418 434
e 418 441
e 418 447
e 418 449
e 418 451
e 418 452
e 418 468
e 418 470
e 418 471
e 418 474
e 418 476
e 418 478
e 418 479
e 418 481
e 418 488
e 418 491
e 418 492
e 418 495
e 418 498
e 419 422
e 419 427
e 419 429
e 419 430
e 419 432
e 419 434
e 419 438
e 419 440
e 419 441
e 419 442
e 419 444
e 419 448
e 419 450
e 419 451
e 419 455
e 419 460
e 419 463
e 419 465
e 419 466
e 419 467
e 419 472
e 419 474
e 419 475
e 419 476
e 419 487
e 419 489
e 419 498
e 420 425
e 420 431
e 420 434
e 420 436
e 420 439
e 420 440
e 420 443
e 420 445
e 420 452
e 420 454
e 420 456
e 420 458
e 420 463
e 420 468
e 420 469
e 420 470
e 420 471
e 420 475
e 420 478
e 420 483
e 420 485
e 420 486
e 420 490
e 420 491
e 420 493
e 420 496
e 420 497
e 420 498
e 420 499
e 420 500
e 421 422
e 421 423
e 421 424
e 421 427
e 421 435
e 421 437
e 421 441
e 421 451
e 421 453
e 421 457
e 421 458
e 421 461
e 421 462
e 421 465
e 421 468
e 421 470
e 421 474
e 421 476
e 421 485
e 421 487
e 421 489
e 421 491
e 421 492
e 421 495
e 421 499
e 422 436
e 422 442
e 422 445
e 422 452
e 422 461
e 422 464
e 422 468
e 422 472
e 422 474
e 422 476
e 422 477
e 422 485
e 422 492
e 422 497
e 422 499
e 423 428
e 423 440
e 423 443
e 423 447
e 423 452
e 423 454
e 423 456
e 423 462
e 423 466
e 423 474
e 423 476
e 423 490
e 423 494
e 423 495
e 423 496
e 423 498
e 424 425
e 424 426
e 424 429
e 424 430
e 424 431
e 424 432
e 424 446
e 424 451
e 424 457
e 424 458
e 424 462
e 424 464
e 424 465
e 424 475
e 424 481
e 424 482
e 424 484
e 424 486
e 424 495
e 424 498
e 424 499
e 424 500
e 425 430
e 425 432
e 425 434
e 425 437
e 425 438
e 425 442
e 425 443
e 425 446
e 425 451
e 425 452
e 425 453
e 425 458
e 425 463
e 425 465
e 425 471
e 425 474
e 425 475
e 425 476
e 425 481
e 425 485
e 425 486
e 425 487
e 425 492
e 425 494
e 425 500
e 426 428
e 426 429
e 426 430
e 426 433
e 426 435
e 426 442
e 426 444
e 426 445
e 426 447
e 426 448
e 426 451
e 426 456
e 426 458
e 426 460
e 426 467
e 426 472
e 426 476
e 426 477
e 426 481
e 426 482
e 426 483
e 426 484
e 426 486
e 426 487
e 426 492
e 426 496
e 427 428
e 427 431
e 427 432
e 427 440
e 427 447
e 427 448
e 427 452
e 427 455
e 427 463
e 427 466
e 427 467
e 427 474
e 427 481
e 427 482
e 427 485
e 427 488
e 427 491
e 427 493
e 427 494
e 427 498
e 428 433
e 428 436
e 428 437
e 428 439
e 428 441
e 428 445
e 428 450
e 428 451
e 428 452
e 428 458
e 428 459
e 428 465
e 428 466
e 428 471
e 428 472
e 428 475
e 428 476
e 428 478
e 428 481
e 428 483
e 428 484
e 428 489
e 428 494
e 428 498
e 429 430
e 429 431
e 429 436
e 429 437
e 429 440
e 429 444
e 429 446
e 429 449
e 429 452
e 429 456
e 429 457
e 429 458
e 429 460
e 429 464
e 429 471
e 429 477
e 429 479
e 429 480
e 429 484
e 429 489
e 429 491
e 429 493
e 429 495
e 429 499
e 430 439
e 430 447
e 430 452
e 430 453
e 430 461
e 430 463
e 430 469
e 430 472
e 430 482
e 430 494
e 431 443
e 431 444
e 431 453
e 431 457
e 431 464
e 431 466
e 431 469
e 431 476
e 431 485
e 431 486
e 431 488
e 431 493
e 431 495
e 431 496
e 432 436
e 432 438
e 432 446
e 432 450
e 432 454
e 432 458
e 432 459
e 432 460
e 432 461
e 432 462
e 432 468
e 432 469
e 432 472
e 432 476
e 432 480
e 432 486
e 433 438
e 433 439
e 433 440
e 433 441
e 433 442
e 433 443
e 433 447
e 433 448
e 433 454
e 433 456
e 433 462
e 433 463
e 433 477
e 433 478
e 433 486
e 433 487
e 433 489
e 433 491
e 433 494
e 433 498
e 434 441
e 434 448
e 434 450
e 434 451
e 434 452
e 434 454
e 434 474
e 434 478
e 434 483
e 434 486
e 434 489
e 434 492
e 434 494
e 434 496
e 435 445
e 435 451
e 435 452
e 435 454
e 435 462
e 435 464
e 435 465
e 435 468
e 435 471
e 435 472
e 435 477
e 435 482
e 435 483
e 435 487
e 435 489
e 435 491
e 435 497
e 436 438
e 436 440
e 436 441
e 436 444
e 436 445
e 436 448
e 436 459
e 436 460
e 436 467
e 436 469
e 436 470
e 436 475
e 436 482
e 436 483
e 436 485
e 436 488
e 436 497
e 436 498
e 437 443
e 437 444
e 437 445
e 437 453
e 437 454
e 437 455
e 437 456
e 437 457
e 437 466
e 437 469
e 437 471
e 437 481
e 437 486
e 437 493
e 437 494
e 437 499
e 438 439
e 438 442
e 438 449
e 438 457
e 438 458
e 438 459
e 438 465
e 438 466
e 438 467
e 438 468
e 438 471
e 438 472
e 438 481
e 438 483
e 438 488
e 438 490
e 438 493
e 438 496
e 438 497
e 438 498
e 438 500
e 439 442
e 439 443
e 439 445
e 439 448
e 439 450
e 439 452
e 439 456
e 439 458
e 439 460
e 439 463
e 439 468
e 439 478
e 439 480
e 439 483
e 439 484
e 439 486
e 439 493
e 439 496
e 439 499
e 440 442
e 440 445
e 440 449
e 440 454
e 440 456
e 440 463
e 440 466
e 440 468
e 440 470
e 440 471
e 440 476
e 440 477
e 440 478
e 440 481
e 440 482
e 440 483
e 440 484
e 440 486
e 440 488
e 440 490
e 440 495
e 440 497
e 440 498
e 440 499
e 441 445
e 441 446
e 441 447
e 441 463
e 441 464
e 441 467
e 441 470
e 441 471
e 441 472
e 441 473
e 441 476
e 441 483
e 441 484
e 441 485
e 441 492
e 441 495
e 441 497
e 442 443
e 442 444
e 442 447
e 442 455
e 442 457
e 442 461
e 442 465
e 442 466
e 442 467
e 442 468
e 442 469
e 442 472
e 442 481
e 442 482
e 442 486
e 442 487
e 442 489
e 442 491
e 442 497
e 442 500
e 443 444
e 443 446
e 443 447
e 443 450
e 443 453
e 443 454
e 443 461
e 443 465
e 443 475
e 443 477
e 443 479
e 443 488
e 443 492
e 443 495
e 443 497
e 443 498
e 443 499
e 444 446
e 444 447
e 444 454
e 444 455
e 444 459
e 444 460
e 444 463
e 444 464
e 444 469
e 444 471
e 444 472
e 444 473
e 444 474
e 444 478
e 444 479
e 444 482
e 444 486
e 444 491
e 444 498
e 444 499
e 445 449
e 445 454
e 445 470
e 445 472
e 445 486
e 445 488
e 445 489
e 445 492
e 445 495
e 445 497
e 445 498
e 446 453
e 446 457
e 446 463
e 446 464
e 446 471
e 446 478
e 446 479
e 446 481
e 446 485
e 446 486
e 446 487
e 446 488
e 446 491
e 446 500
e 447 449
e 447 452
e 447 455
e 447 457
e 447 467
e 447 470
e 447 472
e 447 476
e 447 478
e 447 479
e 447 480
e 447 482
e 447 487
e 447 492
e 447 497
e 447 498
e 447 499
e 447 500
e 448 449
e 448 450
e 448 452
e 448 458
e 448 466
e 448 468
e 448 469
e 448 471
e 448 473
e 448 477
e 448 483
e 448 484
e 448 489
e 448 490
e 448 495
e 448 500
e 449 451
e 449 463
e 449 464
e 449 466
e 449 467
e 449 468
e 449 472
e 449 473
e 449 474
e 449 476
e 449 483
e 449 484
e 449 485
e 449 490
e 449 500
e 450 458
e 450 463
e 450 464
e 450 471
e 450 473
e 450 475
e 450 476
e 450 482
e 450 483
e 450 485
e 450 486
e 450 492
e 450 493
e 450 497
e 450 499
e 451 452
e 451 453
e 451 461
e 451 463
e 451 466
e 451 467
e 451 475
e 451 476
e 451 481
e 451 483
e 451 485
e 451 488
e 451 489
e 451 490
e 451 492
e 451 493
e 451 494
e 451 500
e 452 455
e 452 456
e 452 462
e 452 463
e 452 468
e 452 470
e 452 472
e 452 474
e 452 478
e 452 492
e 452 495
e 453 458
e 453 459
e 453 462
e 453 463
e 453 464
e 453 468
e 453 470
e 453 472
e 453 478
e 453 486
e 453 487
e 453 495
e 453 497
e 454 456
e 454 458
e 454 459
e 454 467
e 454 468
e 454 474
e 454 477
e 454 478
e 454 479
e 454 483
e 454 486
e 454 489
e 454 491
e 454 497
e 454 499
e 455 456
e 455 458
e 455 459
e 455 461
e 455 463
e 455 468
e 455 469
e 455 470
e 455 473
e 455 479
e 455 480
e 455 483
e 455 487
e 455 488
e 455 494
e 455 499
e 456 463
e 456 465
e 456 466
e 456 468
e 456 472
e 456 476
e 456 477
e 456 487
e 456 491
e 456 493
e 456 494
e 456 499
e 456 500
e 457 458
e 457 460
e 457 462
e 457 465
e 457 467
e 457 468
e 457 469
e 457 470
e 457 476
e 457 481
e 457 490
e 457 492
e 457 494
e 457 495
e 457 497
e 457 499
e 458 460
e 458 468
e 458 470
e 458 471
e 458 474
e 458 476
e 458 480
e 458 488
e 458 492
e 458 494
e 458 496
e 458 499
e 459 463
e 459 465
e 459 471
e 459 472
e 459 473
e 459 474
e 459 481
e 459 486
e 459 495
e 460 471
e 460 475
e 460 479
e 460 480
e 460 486
e 460 492
e 460 493
e 460 494
e 460 495
e 460 499
e 461 462
e 461 465
e 461 467
e 461 474
e 461 481
e 461 489
e 461 490
e 461 492
e 461 497
e 462 463
e 462 464
e 462 466
e 462 473
e 462 474
e 462 478
e 462 480
e 462 492
e 462 496
e 462 499
e 463 469
e 463 473
e 463 475
e 463 476
e 463 477
e 463 481
e 463 486
e 463 487
e 463 492
e 463 494
e 463 498
e 463 500
e 464 466
e 464 472
e 464 476
e 464 485
e 464 488
e 464 493
e 464 494
e 464 499
e 465 476
e 465 479
e 465 482
e 465 483
e 465 490
e 465 494
e 466 467
e 466 468
e 466 470
e 466 478
e 466 484
e 466 485
e 466 492
e 466 495
e 466 499
e 467 469
e 467 470
e 467 471
e 467 476
e 467 477
e 467 480
e 467 493
e 467 497
e 467 498
e 468 471
e 468 473
e 468 476
e 468 477
e 468 484
e 468 486
e 468 496
e 468 499
e 469 472
e 469 474
e 469 476
e 469 481
e 469 483
e 469 487
e 469 494
e 469 498
e 470 474
e 470 475
e 470 477
e 470 478
e 470 481
e 470 482
e 470 483
e 470 485
e 470 486
e 470 487
e 470 488
e 470 490
e 470 493
e 470 497
e 471 476
e 471 477
e 471 478
e 471 480
e 471 482
e 471 484
e 471 487
e 471 494
e 471 496
e 471 499
e 471 500
e 472 475
e 472 483
e 472 484
e 472 486
e 472 489
e 472 492
e 472 493
e 472 495
e 472 497
e 472 498
e 472 499
e 472 500
e 473 474
e 473 478
e 473 480
e 473 481
e 473 483
e 473 485
e 473 488
e 473 491
e 473 496
e 474 475
e 474 482
e 474 485
e 474 489
e 474 490
e 474 497
e 474 499
e 474 500
e 475 476
e 475 479
e 475 480
e 475 483
e 475 485
e 475 489
e 475 491
e 475 500
e 476 481
e 476 482
e 476 485
e 476 489
e 476 491
e 476 498
e 476 500
e 477 478
e 477 481
e 477 482
e 477 487
e 477 490
e 477 492
e 477 497
e 477 498
e 478 479
e 478 480
e 478 481
e 478 482
e 478 488
e 478 492
e 478 495
e 478 496
e 478 497
e 479 487
e 479 493
e 479 495
e 479 498
e 480 482
e 480 483
e 480 485
e 480 486
e 480 490
e 480 492
e 480 494
e 480 498
e 481 483
e 481 486
e 481 489
e 481 491
e 481 493
e 482 483
e 482 484
e 482 485
e 482 495
e 482 497
e 482 500
e 483 484
e 483 492
e 483 497
e 483 499
e 484 485
e 484 492
e 484 493
e 484 494
e 484 495
e 484 500
e 485 486
e 485 487
e 485 494
e 485 495
e 485 497
e 485 499
e 485 500
e 486 490
e 486 491
e 486 496
e 487 489
e 487 491
e 487 498
e 488 491
e 488 492
e 488 496
e 488 498
e 488 499
e 489 492
e 489 494
e 490 493
e 491 495
e 491 497
e 491 499
e 492 496
e 492 497
e 492 499
e 492 500
e 493 494
e 493 496
e 493 498
e 494 495
e 494 496
e 494 497
e 494 500
e 495 497
e 497 499
e 498 499
e 499 500
