c Converted from gc_50_3
c Source format: '<vertices> <edges>' header followed by integer edge pairs
p edge 50 350
e 1 4
e 1 6
e 1 9
e 1 11
e 1 43
e 1 44
e 1 46
e 1 50
e 2 6
e 2 14
e 2 16
e 2 17
e 2 21
e 2 23
e 2 25
e 2 26
e 2 28
e 2 32
e 2 36
e 2 40
e 2 46
e 2 47
e 2 48
e 3 4
e 3 10
e 3 11
e 3 13
e 3 16
e 3 22
e 3 29
e 3 37
e 3 43
e 3 47
e 3 48
e 3 49
e 4 6
e 4 8
e 4 9
e 4 10
e 4 12
e 4 26
e 4 31
e 4 34
e 4 36
e 4 37
e 4 41
e 4 46
e 5 13
e 5 16
e 5 17
e 5 21
e 5 25
e 5 27
e 5 28
e 5 31
e 5 41
e 5 44
e 5 45
e 5 46
e 5 48
e 6 8
e 6 19
e 6 26
e 6 33
e 6 38
e 6 43
e 6 44
e 6 46
e 6 47
e 6 50
e 7 16
e 7 17
e 7 18
e 7 19
e 7 21
e 7 24
e 7 25
e 7 29
e 7 30
e 7 34
e 7 36
e 7 38
e 7 42
e 7 44
e 7 46
e 7 47
e 8 10
e 8 15
e 8 19
e 8 21
e 8 22
e 8 23
e 8 25
e 8 27
e 8 32
e 8 33
e 8 36
e 8 38
e 8 41
e 8 42
e 8 45
e 8 47
e 8 48
e 8 50
e 9 12
e 9 17
e 9 18
e 9 21
e 9 28
e 9 29
e 9 32
e 9 33
e 9 35
e 9 42
e 9 44
e 9 48
e 10 11
e 10 13
e 10 15
e 10 16
e 10 20
e 10 26
e 10 27
e 10 34
e 10 36
e 10 39
e 10 44
e 10 45
e 11 18
e 11 20
e 11 21
e 11 31
e 11 32
e 11 38
e 11 39
e 11 40
e 11 43
e 12 16
e 12 19
e 12 21
e 12 23
e 12 29
e 12 32
e 12 33
e 12 34
e 12 35
e 12 36
e 12 38
e 12 42
e 12 47
e 12 48
e 13 15
e 13 17
e 13 18
e 13 21
e 13 29
e 13 30
e 13 32
e 13 44
e 13 46
e 13 49
e 13 50
e 14 15
e 14 16
e 14 20
e 14 21
e 14 24
e 14 25
e 14 27
e 14 30
e 14 42
e 15 20
e 15 24
e 15 27
e 15 30
e 15 38
e 15 40
e 15 49
e 15 50
e 16 17
e 16 20
e 16 28
e 16 31
e 16 32
e 16 34
e 16 45
e 16 49
e 16 50
e 17 18
e 17 20
e 17 26
e 17 30
e 17 31
e 17 34
e 17 36
e 17 39
e 17 42
e 17 47
e 17 49
e 18 23
e 18 24
e 18 30
e 18 33
e 18 34
e 18 45
e 18 46
e 18 47
e 19 23
e 19 29
e 19 32
e 19 34
e 19 36
e 19 43
e 20 24
e 20 27
e 20 30
e 20 39
e 20 40
e 20 43
e 20 44
e 20 46
e 20 48
e 20 50
e 21 25
e 21 29
e 21 38
e 21 41
e 21 43
e 21 45
e 21 48
e 22 23
e 22 25
e 22 26
e 22 38
e 22 45
e 22 46
e 23 28
e 23 30
e 23 31
e 23 33
e 23 42
e 23 45
e 23 48
e 23 49
e 23 50
e 24 28
e 24 30
e 24 33
e 24 35
e 24 43
e 24 44
e 25 26
e 25 28
e 25 33
e 25 41
e 25 49
e 26 35
e 26 46
e 26 47
e 26 49
e 27 28
e 27 30
e 27 31
e 27 33
e 27 34
e 27 37
e 27 43
e 27 49
e 28 30
e 28 31
e 28 33
e 28 36
e 28 42
e 28 45
e 28 46
e 28 48
e 28 49
e 29 34
e 29 35
e 29 36
e 29 37
e 29 38
e 29 44
e 29 46
e 30 32
e 30 36
e 30 44
e 30 45
e 30 46
e 31 32
e 31 38
e 31 40
e 32 34
e 32 37
e 32 39
e 32 41
e 32 47
e 32 49
e 33 35
e 33 36
e 33 37
e 33 40
e 33 43
e 33 46
e 33 48
e 33 50
e 34 35
e 34 40
e 34 42
e 34 44
e 34 45
e 34 46
e 34 47
e 34 48
e 35 36
e 35 41
e 35 44
e 35 45
e 35 46
e 36 37
e 36 40
e 36 41
e 36 42
e 36 43
e 36 46
e 37 43
e 37 46
e 37 48
e 37 50
e 38 39
e 38 40
e 38 44
e 39 42
e 39 43
e 39 49
e 41 46
e 41 47
e 41 48
e 42 43
e 42 45
e 43 45
e 43 48
e 43 50
e 44 45
e 44 48
e 45 46
e 45 50
e 46 48
e 46 50
e 47 48
