c Converted from gc_500_1
c Source format: '<vertices> <edges>' header followed by integer edge pairs
p edge 500 12565
e 1 28
e 1 29
e 1 54
e 1 56
e 1 59
e 1 67
e 1 82
e 1 102
e 1 120
e 1 125
e 1 128
e 1 145
e 1 154
e 1 170
e 1 179
e 1 184
e 1 192
e 1 199
e 1 207
e 1 233
e 1 236
e 1 277
e 1 279
e 1 321
e 1 328
e 1 330
e 1 341
e 1 353
e 1 355
e 1 364
e 1 365
e 1 368
e 1 372
e 1 391
e 1 394
e 1 403
e 1 408
e 1 412
e 1 415
e 1 421
e 1 434
e 1 438
e 1 450
e 1 455
e 1 457
e 1 462
e 1 465
e 1 467
e 1 480
e 1 494
e 1 495
e 1 500
e 2 28
e 2 30
e 2 31
e 2 33
e 2 49
e 2 52
e 2 54
e 2 62
e 2 63
e 2 64
e 2 89
e 2 96
e 2 106
e 2 132
e 2 139
e 2 173
e 2 185
e 2 186
e 2 190
e 2 200
e 2 201
e 2 219
e 2 225
e 2 231
e 2 248
e 2 261
e 2 263
e 2 264
e 2 268
e 2 271
e 2 286
e 2 309
e 2 314
e 2 318
e 2 329
e 2 339
e 2 355
e 2 360
e 2 372
e 2 394
e 2 404
e 2 405
e 2 408
e 2 418
e 2 419
e 2 420
e 2 428
e 2 430
e 2 455
e 2 462
e 2 471
e 2 484
e 2 488
e 2 491
e 2 496
e 2 499
e 3 12
e 3 13
e 3 21
e 3 24
e 3 30
e 3 34
e 3 43
e 3 45
e 3 51
e 3 64
e 3 70
e 3 80
e 3 89
e 3 92
e 3 94
e 3 96
e 3 109
e 3 113
e 3 120
e 3 125
e 3 136
e 3 137
e 3 146
e 3 148
e 3 160
e 3 183
e 3 186
e 3 194
e 3 228
e 3 234
e 3 249
e 3 250
e 3 254
e 3 256
e 3 264
e 3 268
e 3 303
e 3 320
e 3 326
e 3 329
e 3 344
e 3 367
e 3 371
e 3 373
e 3 377
e 3 381
e 3 390
e 3 391
e 3 402
e 3 404
e 3 405
e 3 427
e 3 438
e 3 439
e 3 451
e 3 481
e 3 485
e 3 494
e 4 38
e 4 62
e 4 83
e 4 99
e 4 106
e 4 110
e 4 133
e 4 156
e 4 157
e 4 168
e 4 175
e 4 211
e 4 219
e 4 225
e 4 226
e 4 229
e 4 240
e 4 271
e 4 302
e 4 305
e 4 308
e 4 319
e 4 320
e 4 324
e 4 353
e 4 368
e 4 370
e 4 380
e 4 382
e 4 392
e 4 403
e 4 429
e 4 435
e 4 445
e 4 454
e 4 461
e 4 492
e 4 496
e 5 10
e 5 16
e 5 57
e 5 77
e 5 103
e 5 112
e 5 129
e 5 146
e 5 155
e 5 158
e 5 176
e 5 187
e 5 199
e 5 203
e 5 209
e 5 211
e 5 225
e 5 229
e 5 242
e 5 243
e 5 252
e 5 258
e 5 259
e 5 273
e 5 274
e 5 312
e 5 318
e 5 323
e 5 337
e 5 372
e 5 386
e 5 394
e 5 409
e 5 422
e 5 425
e 5 427
e 5 443
e 5 456
e 5 467
e 5 478
e 6 7
e 6 8
e 6 13
e 6 38
e 6 57
e 6 58
e 6 98
e 6 115
e 6 133
e 6 135
e 6 136
e 6 149
e 6 158
e 6 169
e 6 173
e 6 182
e 6 202
e 6 208
e 6 210
e 6 211
e 6 217
e 6 224
e 6 225
e 6 227
e 6 235
e 6 242
e 6 248
e 6 249
e 6 255
e 6 259
e 6 273
e 6 279
e 6 280
e 6 285
e 6 286
e 6 304
e 6 306
e 6 310
e 6 357
e 6 364
e 6 366
e 6 380
e 6 390
e 6 408
e 6 414
e 6 428
e 6 429
e 6 438
e 6 439
e 6 440
e 6 446
e 6 455
e 6 479
e 7 8
e 7 14
e 7 38
e 7 43
e 7 61
e 7 82
e 7 83
e 7 101
e 7 107
e 7 116
e 7 124
e 7 130
e 7 145
e 7 146
e 7 150
e 7 152
e 7 183
e 7 192
e 7 197
e 7 199
e 7 206
e 7 222
e 7 245
e 7 246
e 7 274
e 7 289
e 7 299
e 7 300
e 7 310
e 7 321
e 7 331
e 7 333
e 7 335
e 7 337
e 7 342
e 7 386
e 7 393
e 7 398
e 7 401
e 7 402
e 7 408
e 7 411
e 7 418
e 7 432
e 7 435
e 7 439
e 7 462
e 7 468
e 7 478
e 7 481
e 7 492
e 7 497
e 8 10
e 8 14
e 8 17
e 8 57
e 8 69
e 8 70
e 8 79
e 8 118
e 8 129
e 8 130
e 8 143
e 8 159
e 8 163
e 8 164
e 8 185
e 8 191
e 8 192
e 8 216
e 8 231
e 8 233
e 8 236
e 8 254
e 8 261
e 8 271
e 8 296
e 8 297
e 8 304
e 8 316
e 8 324
e 8 332
e 8 342
e 8 370
e 8 376
e 8 388
e 8 390
e 8 400
e 8 401
e 8 410
e 8 411
e 8 421
e 8 451
e 8 465
e 8 472
e 8 479
e 8 480
e 8 481
e 8 488
e 8 490
e 8 500
e 9 16
e 9 19
e 9 44
e 9 56
e 9 65
e 9 71
e 9 78
e 9 82
e 9 84
e 9 139
e 9 152
e 9 158
e 9 159
e 9 178
e 9 189
e 9 196
e 9 207
e 9 223
e 9 225
e 9 235
e 9 240
e 9 256
e 9 258
e 9 275
e 9 321
e 9 332
e 9 338
e 9 343
e 9 348
e 9 390
e 9 402
e 9 415
e 9 428
e 9 436
e 9 457
e 9 474
e 9 475
e 9 476
e 9 480
e 9 483
e 10 24
e 10 25
e 10 39
e 10 51
e 10 61
e 10 63
e 10 64
e 10 97
e 10 106
e 10 109
e 10 113
e 10 121
e 10 123
e 10 127
e 10 135
e 10 140
e 10 157
e 10 163
e 10 180
e 10 184
e 10 186
e 10 194
e 10 196
e 10 207
e 10 211
e 10 216
e 10 224
e 10 243
e 10 247
e 10 253
e 10 260
e 10 274
e 10 282
e 10 287
e 10 322
e 10 323
e 10 326
e 10 333
e 10 360
e 10 367
e 10 397
e 10 398
e 10 402
e 10 412
e 10 419
e 10 433
e 10 452
e 10 454
e 10 470
e 10 472
e 10 497
e 11 38
e 11 46
e 11 59
e 11 74
e 11 77
e 11 82
e 11 92
e 11 116
e 11 133
e 11 137
e 11 147
e 11 149
e 11 155
e 11 161
e 11 162
e 11 171
e 11 174
e 11 179
e 11 189
e 11 193
e 11 198
e 11 202
e 11 214
e 11 226
e 11 257
e 11 277
e 11 291
e 11 301
e 11 314
e 11 316
e 11 353
e 11 364
e 11 369
e 11 375
e 11 408
e 11 432
e 11 441
e 11 443
e 11 457
e 11 483
e 12 21
e 12 26
e 12 31
e 12 45
e 12 55
e 12 59
e 12 69
e 12 77
e 12 82
e 12 88
e 12 98
e 12 102
e 12 116
e 12 122
e 12 128
e 12 129
e 12 133
e 12 141
e 12 152
e 12 159
e 12 161
e 12 170
e 12 183
e 12 192
e 12 199
e 12 211
e 12 226
e 12 261
e 12 262
e 12 277
e 12 282
e 12 302
e 12 310
e 12 350
e 12 353
e 12 355
e 12 357
e 12 361
e 12 362
e 12 390
e 12 391
e 12 405
e 12 406
e 12 416
e 12 422
e 12 424
e 12 426
e 12 441
e 12 458
e 12 477
e 12 481
e 12 484
e 12 497
e 13 21
e 13 37
e 13 42
e 13 44
e 13 52
e 13 69
e 13 88
e 13 89
e 13 127
e 13 137
e 13 150
e 13 164
e 13 170
e 13 174
e 13 176
e 13 177
e 13 193
e 13 211
e 13 227
e 13 232
e 13 235
e 13 238
e 13 266
e 13 272
e 13 276
e 13 296
e 13 301
e 13 304
e 13 311
e 13 322
e 13 338
e 13 342
e 13 344
e 13 354
e 13 370
e 13 378
e 13 384
e 13 392
e 13 411
e 13 417
e 13 419
e 13 424
e 13 483
e 13 493
e 14 31
e 14 35
e 14 43
e 14 58
e 14 66
e 14 96
e 14 113
e 14 129
e 14 133
e 14 140
e 14 144
e 14 146
e 14 157
e 14 159
e 14 164
e 14 165
e 14 167
e 14 172
e 14 189
e 14 211
e 14 217
e 14 231
e 14 234
e 14 236
e 14 240
e 14 246
e 14 248
e 14 262
e 14 269
e 14 270
e 14 274
e 14 278
e 14 279
e 14 282
e 14 299
e 14 300
e 14 312
e 14 318
e 14 319
e 14 331
e 14 355
e 14 382
e 14 410
e 14 413
e 14 414
e 14 417
e 14 418
e 14 440
e 14 446
e 14 451
e 14 474
e 14 478
e 14 481
e 14 485
e 14 499
e 15 21
e 15 29
e 15 34
e 15 43
e 15 47
e 15 58
e 15 59
e 15 66
e 15 69
e 15 70
e 15 72
e 15 76
e 15 77
e 15 80
e 15 103
e 15 111
e 15 153
e 15 178
e 15 179
e 15 185
e 15 187
e 15 188
e 15 210
e 15 213
e 15 230
e 15 231
e 15 234
e 15 242
e 15 255
e 15 260
e 15 265
e 15 283
e 15 304
e 15 309
e 15 314
e 15 317
e 15 319
e 15 334
e 15 338
e 15 340
e 15 345
e 15 364
e 15 386
e 15 394
e 15 396
e 15 407
e 15 422
e 15 438
e 15 462
e 15 468
e 15 470
e 15 473
e 15 493
e 16 17
e 16 19
e 16 43
e 16 52
e 16 65
e 16 68
e 16 70
e 16 76
e 16 88
e 16 90
e 16 101
e 16 107
e 16 121
e 16 132
e 16 176
e 16 180
e 16 191
e 16 195
e 16 207
e 16 210
e 16 214
e 16 219
e 16 229
e 16 231
e 16 237
e 16 252
e 16 266
e 16 270
e 16 272
e 16 273
e 16 275
e 16 276
e 16 288
e 16 290
e 16 294
e 16 302
e 16 321
e 16 322
e 16 337
e 16 340
e 16 359
e 16 366
e 16 370
e 16 394
e 16 397
e 16 398
e 16 403
e 16 408
e 16 411
e 16 414
e 16 420
e 16 450
e 16 473
e 16 476
e 16 485
e 17 29
e 17 35
e 17 37
e 17 41
e 17 59
e 17 63
e 17 65
e 17 71
e 17 72
e 17 90
e 17 106
e 17 134
e 17 155
e 17 184
e 17 186
e 17 205
e 17 258
e 17 262
e 17 268
e 17 280
e 17 298
e 17 300
e 17 322
e 17 351
e 17 358
e 17 364
e 17 365
e 17 374
e 17 375
e 17 398
e 17 401
e 17 410
e 17 433
e 17 436
e 17 446
e 17 452
e 17 467
e 17 469
e 17 483
e 17 495
e 17 500
e 18 23
e 18 32
e 18 53
e 18 59
e 18 62
e 18 81
e 18 83
e 18 93
e 18 112
e 18 116
e 18 120
e 18 132
e 18 157
e 18 168
e 18 178
e 18 186
e 18 214
e 18 216
e 18 220
e 18 221
e 18 222
e 18 230
e 18 236
e 18 268
e 18 291
e 18 306
e 18 307
e 18 313
e 18 319
e 18 329
e 18 336
e 18 341
e 18 342
e 18 355
e 18 362
e 18 367
e 18 379
e 18 391
e 18 392
e 18 399
e 18 403
e 18 408
e 18 411
e 18 412
e 18 413
e 18 415
e 18 421
e 18 428
e 18 430
e 18 435
e 18 440
e 18 443
e 18 448
e 19 26
e 19 28
e 19 33
e 19 39
e 19 41
e 19 57
e 19 109
e 19 120
e 19 121
e 19 124
e 19 131
e 19 138
e 19 142
e 19 168
e 19 188
e 19 199
e 19 210
e 19 222
e 19 225
e 19 234
e 19 240
e 19 248
e 19 260
e 19 264
e 19 285
e 19 318
e 19 326
e 19 340
e 19 348
e 19 373
e 19 388
e 19 400
e 19 405
e 19 428
e 19 447
e 19 457
e 19 458
e 19 472
e 19 489
e 19 494
e 19 495
e 19 500
e 20 21
e 20 25
e 20 29
e 20 37
e 20 60
e 20 79
e 20 83
e 20 84
e 20 93
e 20 97
e 20 118
e 20 123
e 20 124
e 20 127
e 20 171
e 20 188
e 20 196
e 20 205
e 20 208
e 20 211
e 20 220
e 20 221
e 20 223
e 20 245
e 20 249
e 20 258
e 20 263
e 20 274
e 20 275
e 20 294
e 20 300
e 20 304
e 20 311
e 20 322
e 20 324
e 20 334
e 20 343
e 20 349
e 20 359
e 20 374
e 20 375
e 20 398
e 20 402
e 20 408
e 20 430
e 20 442
e 20 445
e 20 449
e 20 455
e 20 464
e 20 473
e 20 476
e 20 483
e 21 27
e 21 39
e 21 42
e 21 57
e 21 59
e 21 61
e 21 74
e 21 75
e 21 94
e 21 116
e 21 141
e 21 147
e 21 152
e 21 167
e 21 187
e 21 188
e 21 191
e 21 212
e 21 219
e 21 221
e 21 233
e 21 240
e 21 245
e 21 255
e 21 261
e 21 265
e 21 267
e 21 283
e 21 284
e 21 294
e 21 309
e 21 320
e 21 360
e 21 361
e 21 363
e 21 367
e 21 427
e 21 428
e 21 437
e 21 447
e 21 454
e 21 456
e 21 457
e 21 459
e 21 465
e 21 473
e 21 480
e 21 483
e 21 486
e 21 499
e 22 41
e 22 42
e 22 45
e 22 56
e 22 72
e 22 91
e 22 92
e 22 95
e 22 101
e 22 106
e 22 120
e 22 127
e 22 132
e 22 136
e 22 145
e 22 146
e 22 149
e 22 150
e 22 154
e 22 160
e 22 162
e 22 166
e 22 216
e 22 226
e 22 259
e 22 265
e 22 274
e 22 279
e 22 285
e 22 302
e 22 317
e 22 318
e 22 320
e 22 325
e 22 328
e 22 329
e 22 333
e 22 347
e 22 348
e 22 351
e 22 355
e 22 362
e 22 381
e 22 384
e 22 388
e 22 400
e 22 402
e 22 404
e 22 412
e 22 455
e 22 457
e 22 461
e 22 474
e 22 475
e 22 485
e 23 26
e 23 36
e 23 42
e 23 53
e 23 60
e 23 82
e 23 87
e 23 92
e 23 103
e 23 109
e 23 131
e 23 132
e 23 146
e 23 149
e 23 150
e 23 176
e 23 177
e 23 187
e 23 219
e 23 234
e 23 235
e 23 243
e 23 250
e 23 251
e 23 252
e 23 253
e 23 259
e 23 274
e 23 278
e 23 282
e 23 290
e 23 292
e 23 294
e 23 302
e 23 311
e 23 315
e 23 316
e 23 344
e 23 355
e 23 374
e 23 378
e 23 387
e 23 411
e 23 426
e 23 434
e 23 438
e 23 449
e 23 463
e 23 468
e 23 473
e 23 475
e 23 477
e 23 479
e 23 480
e 24 36
e 24 41
e 24 56
e 24 57
e 24 72
e 24 95
e 24 112
e 24 118
e 24 125
e 24 131
e 24 141
e 24 144
e 24 146
e 24 156
e 24 198
e 24 207
e 24 213
e 24 233
e 24 239
e 24 253
e 24 265
e 24 272
e 24 283
e 24 293
e 24 322
e 24 338
e 24 343
e 24 362
e 24 380
e 24 415
e 24 434
e 24 438
e 24 442
e 24 453
e 24 455
e 24 475
e 24 479
e 24 488
e 24 498
e 25 57
e 25 70
e 25 81
e 25 83
e 25 99
e 25 109
e 25 113
e 25 123
e 25 128
e 25 133
e 25 145
e 25 151
e 25 153
e 25 160
e 25 165
e 25 174
e 25 177
e 25 179
e 25 213
e 25 220
e 25 258
e 25 267
e 25 271
e 25 281
e 25 284
e 25 289
e 25 303
e 25 304
e 25 313
e 25 325
e 25 343
e 25 356
e 25 357
e 25 361
e 25 379
e 25 382
e 25 384
e 25 393
e 25 403
e 25 406
e 25 414
e 25 417
e 25 425
e 25 432
e 25 448
e 25 453
e 25 457
e 25 473
e 25 475
e 26 35
e 26 36
e 26 56
e 26 61
e 26 67
e 26 77
e 26 91
e 26 106
e 26 112
e 26 124
e 26 125
e 26 126
e 26 127
e 26 139
e 26 149
e 26 152
e 26 158
e 26 167
e 26 168
e 26 169
e 26 197
e 26 199
e 26 200
e 26 204
e 26 222
e 26 230
e 26 239
e 26 240
e 26 249
e 26 259
e 26 262
e 26 272
e 26 296
e 26 298
e 26 306
e 26 310
e 26 324
e 26 334
e 26 339
e 26 369
e 26 372
e 26 375
e 26 381
e 26 386
e 26 390
e 26 394
e 26 398
e 26 417
e 26 418
e 26 428
e 26 438
e 26 444
e 26 472
e 26 486
e 27 39
e 27 46
e 27 47
e 27 55
e 27 79
e 27 82
e 27 92
e 27 96
e 27 102
e 27 112
e 27 138
e 27 139
e 27 157
e 27 162
e 27 166
e 27 188
e 27 191
e 27 206
e 27 209
e 27 219
e 27 235
e 27 238
e 27 249
e 27 269
e 27 281
e 27 293
e 27 296
e 27 302
e 27 321
e 27 332
e 27 337
e 27 342
e 27 348
e 27 381
e 27 385
e 27 388
e 27 403
e 27 416
e 27 430
e 27 434
e 27 463
e 27 479
e 27 482
e 27 486
e 27 492
e 27 496
e 27 498
e 27 499
e 28 42
e 28 52
e 28 61
e 28 75
e 28 81
e 28 86
e 28 88
e 28 89
e 28 101
e 28 106
e 28 112
e 28 119
e 28 121
e 28 124
e 28 129
e 28 136
e 28 138
e 28 144
e 28 149
e 28 162
e 28 184
e 28 194
e 28 200
e 28 203
e 28 214
e 28 227
e 28 249
e 28 257
e 28 280
e 28 288
e 28 304
e 28 313
e 28 316
e 28 320
e 28 325
e 28 338
e 28 341
e 28 348
e 28 351
e 28 358
e 28 359
e 28 362
e 28 364
e 28 377
e 28 421
e 28 442
e 28 458
e 28 460
e 28 463
e 28 466
e 28 468
e 28 483
e 28 486
e 28 491
e 28 496
e 29 42
e 29 44
e 29 50
e 29 51
e 29 55
e 29 64
e 29 68
e 29 73
e 29 80
e 29 88
e 29 90
e 29 92
e 29 95
e 29 108
e 29 112
e 29 125
e 29 134
e 29 135
e 29 141
e 29 144
e 29 147
e 29 180
e 29 189
e 29 191
e 29 202
e 29 210
e 29 221
e 29 248
e 29 259
e 29 262
e 29 263
e 29 286
e 29 303
e 29 315
e 29 319
e 29 333
e 29 336
e 29 340
e 29 351
e 29 352
e 29 355
e 29 362
e 29 371
e 29 379
e 29 383
e 29 386
e 29 391
e 29 413
e 29 444
e 29 478
e 30 33
e 30 51
e 30 53
e 30 65
e 30 70
e 30 90
e 30 94
e 30 99
e 30 105
e 30 127
e 30 129
e 30 137
e 30 142
e 30 154
e 30 180
e 30 213
e 30 216
e 30 225
e 30 232
e 30 235
e 30 236
e 30 239
e 30 245
e 30 256
e 30 287
e 30 307
e 30 315
e 30 354
e 30 363
e 30 366
e 30 367
e 30 390
e 30 407
e 30 434
e 30 459
e 30 461
e 30 481
e 30 495
e 31 37
e 31 38
e 31 40
e 31 55
e 31 79
e 31 83
e 31 102
e 31 118
e 31 128
e 31 143
e 31 149
e 31 190
e 31 199
e 31 218
e 31 228
e 31 229
e 31 230
e 31 233
e 31 235
e 31 236
e 31 287
e 31 298
e 31 308
e 31 322
e 31 325
e 31 340
e 31 354
e 31 378
e 31 380
e 31 381
e 31 387
e 31 393
e 31 434
e 31 443
e 31 452
e 31 456
e 31 457
e 31 476
e 31 490
e 31 496
e 32 43
e 32 51
e 32 80
e 32 93
e 32 94
e 32 104
e 32 105
e 32 106
e 32 151
e 32 162
e 32 163
e 32 193
e 32 201
e 32 202
e 32 222
e 32 229
e 32 245
e 32 254
e 32 262
e 32 301
e 32 317
e 32 325
e 32 335
e 32 376
e 32 401
e 32 420
e 32 424
e 32 428
e 32 430
e 32 436
e 32 444
e 32 457
e 32 492
e 32 496
e 33 62
e 33 66
e 33 83
e 33 91
e 33 94
e 33 122
e 33 130
e 33 135
e 33 143
e 33 145
e 33 168
e 33 175
e 33 184
e 33 200
e 33 214
e 33 226
e 33 230
e 33 239
e 33 257
e 33 261
e 33 277
e 33 287
e 33 289
e 33 299
e 33 305
e 33 321
e 33 340
e 33 356
e 33 367
e 33 377
e 33 383
e 33 405
e 33 407
e 33 414
e 33 415
e 33 452
e 33 469
e 33 481
e 33 494
e 34 39
e 34 46
e 34 72
e 34 73
e 34 110
e 34 111
e 34 112
e 34 116
e 34 120
e 34 127
e 34 132
e 34 143
e 34 147
e 34 159
e 34 164
e 34 176
e 34 187
e 34 191
e 34 194
e 34 201
e 34 202
e 34 210
e 34 218
e 34 230
e 34 253
e 34 296
e 34 312
e 34 318
e 34 334
e 34 349
e 34 364
e 34 375
e 34 379
e 34 383
e 34 403
e 34 410
e 34 429
e 34 447
e 34 452
e 34 457
e 34 466
e 34 477
e 34 495
e 34 498
e 35 41
e 35 74
e 35 94
e 35 100
e 35 101
e 35 112
e 35 119
e 35 122
e 35 146
e 35 151
e 35 157
e 35 158
e 35 175
e 35 186
e 35 188
e 35 194
e 35 202
e 35 212
e 35 221
e 35 240
e 35 252
e 35 261
e 35 272
e 35 275
e 35 282
e 35 287
e 35 289
e 35 293
e 35 294
e 35 298
e 35 314
e 35 322
e 35 330
e 35 355
e 35 371
e 35 385
e 35 391
e 35 393
e 35 404
e 35 415
e 35 419
e 35 421
e 35 422
e 35 428
e 35 444
e 35 480
e 35 484
e 35 496
e 36 46
e 36 47
e 36 78
e 36 82
e 36 83
e 36 86
e 36 95
e 36 99
e 36 118
e 36 144
e 36 152
e 36 153
e 36 188
e 36 198
e 36 207
e 36 208
e 36 243
e 36 244
e 36 252
e 36 275
e 36 277
e 36 279
e 36 296
e 36 301
e 36 302
e 36 307
e 36 308
e 36 309
e 36 320
e 36 329
e 36 335
e 36 344
e 36 350
e 36 377
e 36 384
e 36 388
e 36 397
e 36 412
e 36 416
e 36 439
e 36 458
e 36 460
e 36 462
e 36 469
e 36 482
e 36 488
e 36 490
e 37 49
e 37 67
e 37 72
e 37 73
e 37 76
e 37 80
e 37 117
e 37 137
e 37 145
e 37 158
e 37 161
e 37 162
e 37 169
e 37 174
e 37 205
e 37 232
e 37 234
e 37 243
e 37 248
e 37 266
e 37 282
e 37 294
e 37 297
e 37 302
e 37 315
e 37 324
e 37 325
e 37 339
e 37 373
e 37 378
e 37 380
e 37 391
e 37 396
e 37 404
e 37 413
e 37 423
e 37 424
e 37 432
e 37 440
e 37 454
e 37 466
e 37 468
e 37 476
e 37 479
e 37 486
e 38 50
e 38 51
e 38 58
e 38 59
e 38 63
e 38 82
e 38 91
e 38 107
e 38 137
e 38 153
e 38 158
e 38 160
e 38 176
e 38 178
e 38 179
e 38 192
e 38 213
e 38 218
e 38 234
e 38 256
e 38 260
e 38 261
e 38 262
e 38 273
e 38 277
e 38 283
e 38 286
e 38 287
e 38 288
e 38 311
e 38 348
e 38 358
e 38 386
e 38 395
e 38 403
e 38 408
e 38 411
e 38 413
e 38 416
e 38 432
e 38 435
e 38 438
e 38 444
e 38 455
e 38 457
e 38 471
e 39 43
e 39 45
e 39 76
e 39 83
e 39 116
e 39 139
e 39 142
e 39 146
e 39 156
e 39 158
e 39 164
e 39 172
e 39 187
e 39 197
e 39 208
e 39 221
e 39 232
e 39 250
e 39 272
e 39 288
e 39 290
e 39 292
e 39 318
e 39 324
e 39 353
e 39 368
e 39 374
e 39 379
e 39 397
e 39 410
e 39 419
e 39 426
e 39 445
e 39 451
e 39 454
e 39 459
e 39 460
e 39 465
e 39 478
e 39 499
e 40 47
e 40 74
e 40 88
e 40 109
e 40 111
e 40 112
e 40 132
e 40 140
e 40 145
e 40 151
e 40 163
e 40 164
e 40 170
e 40 200
e 40 216
e 40 236
e 40 237
e 40 259
e 40 267
e 40 274
e 40 275
e 40 279
e 40 282
e 40 298
e 40 338
e 40 339
e 40 347
e 40 356
e 40 367
e 40 382
e 40 384
e 40 396
e 40 403
e 40 407
e 40 416
e 40 419
e 40 422
e 40 441
e 40 444
e 40 462
e 40 469
e 40 486
e 40 500
e 41 63
e 41 78
e 41 82
e 41 96
e 41 103
e 41 107
e 41 110
e 41 111
e 41 124
e 41 135
e 41 147
e 41 150
e 41 160
e 41 181
e 41 186
e 41 190
e 41 225
e 41 229
e 41 231
e 41 234
e 41 247
e 41 252
e 41 265
e 41 278
e 41 281
e 41 284
e 41 306
e 41 333
e 41 376
e 41 377
e 41 388
e 41 401
e 41 402
e 41 404
e 41 425
e 41 432
e 41 436
e 41 455
e 41 457
e 41 462
e 41 474
e 41 476
e 41 484
e 41 485
e 42 47
e 42 59
e 42 67
e 42 73
e 42 103
e 42 107
e 42 112
e 42 127
e 42 146
e 42 167
e 42 171
e 42 199
e 42 220
e 42 221
e 42 237
e 42 248
e 42 251
e 42 256
e 42 260
e 42 263
e 42 271
e 42 274
e 42 295
e 42 322
e 42 330
e 42 332
e 42 335
e 42 338
e 42 344
e 42 348
e 42 349
e 42 351
e 42 374
e 42 378
e 42 383
e 42 388
e 42 418
e 42 449
e 42 461
e 42 462
e 42 464
e 42 468
e 42 487
e 42 497
e 43 45
e 43 63
e 43 65
e 43 69
e 43 70
e 43 72
e 43 86
e 43 87
e 43 103
e 43 120
e 43 122
e 43 132
e 43 143
e 43 152
e 43 163
e 43 164
e 43 169
e 43 181
e 43 200
e 43 204
e 43 220
e 43 225
e 43 235
e 43 265
e 43 268
e 43 276
e 43 287
e 43 300
e 43 326
e 43 337
e 43 347
e 43 362
e 43 374
e 43 384
e 43 391
e 43 397
e 43 401
e 43 402
e 43 427
e 43 428
e 43 432
e 43 436
e 43 446
e 43 449
e 43 455
e 43 470
e 43 476
e 43 498
e 44 52
e 44 68
e 44 69
e 44 70
e 44 81
e 44 99
e 44 106
e 44 113
e 44 125
e 44 134
e 44 147
e 44 152
e 44 154
e 44 161
e 44 165
e 44 166
e 44 167
e 44 175
e 44 187
e 44 226
e 44 232
e 44 244
e 44 246
e 44 261
e 44 270
e 44 275
e 44 308
e 44 320
e 44 343
e 44 351
e 44 370
e 44 372
e 44 377
e 44 388
e 44 395
e 44 401
e 44 421
e 44 434
e 44 460
e 44 470
e 44 480
e 44 492
e 44 493
e 45 104
e 45 128
e 45 131
e 45 133
e 45 137
e 45 141
e 45 159
e 45 161
e 45 164
e 45 174
e 45 181
e 45 188
e 45 191
e 45 196
e 45 198
e 45 203
e 45 226
e 45 241
e 45 247
e 45 249
e 45 255
e 45 272
e 45 274
e 45 290
e 45 301
e 45 311
e 45 351
e 45 366
e 45 370
e 45 377
e 45 401
e 45 408
e 45 431
e 45 435
e 45 446
e 45 461
e 45 462
e 45 463
e 45 464
e 45 478
e 45 480
e 45 484
e 45 489
e 45 492
e 45 499
e 45 500
e 46 56
e 46 64
e 46 76
e 46 85
e 46 96
e 46 105
e 46 120
e 46 126
e 46 131
e 46 133
e 46 135
e 46 161
e 46 195
e 46 196
e 46 198
e 46 217
e 46 221
e 46 230
e 46 231
e 46 246
e 46 248
e 46 260
e 46 265
e 46 272
e 46 273
e 46 282
e 46 285
e 46 298
e 46 317
e 46 331
e 46 332
e 46 346
e 46 351
e 46 357
e 46 360
e 46 364
e 46 380
e 46 382
e 46 383
e 46 391
e 46 396
e 46 397
e 46 398
e 46 407
e 46 422
e 46 431
e 46 433
e 46 440
e 46 443
e 46 444
e 46 446
e 46 452
e 46 463
e 46 464
e 46 465
e 46 496
e 46 498
e 46 499
e 46 500
e 47 50
e 47 67
e 47 73
e 47 86
e 47 89
e 47 97
e 47 113
e 47 129
e 47 134
e 47 146
e 47 153
e 47 155
e 47 161
e 47 163
e 47 179
e 47 183
e 47 190
e 47 198
e 47 222
e 47 234
e 47 244
e 47 272
e 47 275
e 47 291
e 47 293
e 47 296
e 47 305
e 47 315
e 47 329
e 47 337
e 47 349
e 47 352
e 47 362
e 47 366
e 47 373
e 47 381
e 47 384
e 47 396
e 47 405
e 47 410
e 47 412
e 47 417
e 47 436
e 47 439
e 47 444
e 47 454
e 47 457
e 47 458
e 47 474
e 47 477
e 47 495
e 47 496
e 47 497
e 48 52
e 48 54
e 48 58
e 48 64
e 48 78
e 48 80
e 48 97
e 48 100
e 48 105
e 48 108
e 48 111
e 48 126
e 48 135
e 48 145
e 48 149
e 48 151
e 48 168
e 48 174
e 48 179
e 48 183
e 48 193
e 48 216
e 48 226
e 48 256
e 48 262
e 48 266
e 48 272
e 48 281
e 48 296
e 48 310
e 48 316
e 48 320
e 48 326
e 48 338
e 48 347
e 48 350
e 48 381
e 48 396
e 48 406
e 48 411
e 48 425
e 48 435
e 48 440
e 48 441
e 48 454
e 48 461
e 48 463
e 48 465
e 48 471
e 48 478
e 48 479
e 48 500
e 49 58
e 49 65
e 49 79
e 49 86
e 49 95
e 49 103
e 49 105
e 49 112
e 49 122
e 49 130
e 49 167
e 49 175
e 49 178
e 49 182
e 49 186
e 49 209
e 49 222
e 49 249
e 49 251
e 49 257
e 49 265
e 49 275
e 49 277
e 49 289
e 49 290
e 49 292
e 49 315
e 49 321
e 49 323
e 49 354
e 49 358
e 49 377
e 49 383
e 49 388
e 49 405
e 49 409
e 49 411
e 49 422
e 49 423
e 49 430
e 49 440
e 49 443
e 49 456
e 49 462
e 49 500
e 50 53
e 50 56
e 50 63
e 50 65
e 50 66
e 50 74
e 50 75
e 50 97
e 50 130
e 50 157
e 50 158
e 50 165
e 50 172
e 50 177
e 50 194
e 50 209
e 50 217
e 50 227
e 50 261
e 50 270
e 50 280
e 50 296
e 50 298
e 50 308
e 50 315
e 50 318
e 50 350
e 50 351
e 50 361
e 50 369
e 50 386
e 50 396
e 50 402
e 50 427
e 50 431
e 50 447
e 50 448
e 50 459
e 50 468
e 50 475
e 50 478
e 50 485
e 51 53
e 51 58
e 51 80
e 51 84
e 51 85
e 51 95
e 51 97
e 51 128
e 51 137
e 51 177
e 51 186
e 51 192
e 51 206
e 51 208
e 51 214
e 51 234
e 51 236
e 51 239
e 51 254
e 51 263
e 51 264
e 51 265
e 51 270
e 51 272
e 51 273
e 51 282
e 51 283
e 51 288
e 51 291
e 51 293
e 51 300
e 51 305
e 51 306
e 51 319
e 51 327
e 51 331
e 51 334
e 51 338
e 51 365
e 51 404
e 51 412
e 51 416
e 51 423
e 51 435
e 51 441
e 51 487
e 51 495
e 52 53
e 52 68
e 52 72
e 52 76
e 52 77
e 52 96
e 52 97
e 52 110
e 52 115
e 52 125
e 52 136
e 52 141
e 52 153
e 52 172
e 52 182
e 52 186
e 52 199
e 52 210
e 52 240
e 52 284
e 52 285
e 52 302
e 52 309
e 52 329
e 52 334
e 52 359
e 52 361
e 52 368
e 52 390
e 52 410
e 52 415
e 52 423
e 52 439
e 52 449
e 52 456
e 52 481
e 52 485
e 52 487
e 52 495
e 52 496
e 52 499
e 53 54
e 53 57
e 53 69
e 53 100
e 53 103
e 53 108
e 53 127
e 53 129
e 53 138
e 53 145
e 53 146
e 53 147
e 53 148
e 53 153
e 53 161
e 53 163
e 53 166
e 53 172
e 53 176
e 53 185
e 53 189
e 53 195
e 53 207
e 53 219
e 53 223
e 53 245
e 53 250
e 53 308
e 53 309
e 53 311
e 53 312
e 53 315
e 53 317
e 53 329
e 53 341
e 53 346
e 53 347
e 53 359
e 53 366
e 53 371
e 53 389
e 53 390
e 53 393
e 53 396
e 53 405
e 53 407
e 53 408
e 53 409
e 53 417
e 53 457
e 53 458
e 53 499
e 54 76
e 54 96
e 54 103
e 54 105
e 54 107
e 54 122
e 54 128
e 54 131
e 54 154
e 54 155
e 54 171
e 54 196
e 54 215
e 54 232
e 54 233
e 54 238
e 54 247
e 54 248
e 54 252
e 54 253
e 54 258
e 54 266
e 54 267
e 54 270
e 54 285
e 54 287
e 54 294
e 54 304
e 54 317
e 54 323
e 54 336
e 54 347
e 54 352
e 54 380
e 54 399
e 54 401
e 54 428
e 54 436
e 54 440
e 54 444
e 54 461
e 54 471
e 54 483
e 54 486
e 55 56
e 55 57
e 55 67
e 55 80
e 55 87
e 55 88
e 55 91
e 55 95
e 55 104
e 55 112
e 55 142
e 55 150
e 55 166
e 55 183
e 55 184
e 55 186
e 55 195
e 55 198
e 55 209
e 55 216
e 55 231
e 55 250
e 55 255
e 55 258
e 55 262
e 55 272
e 55 300
e 55 301
e 55 314
e 55 324
e 55 328
e 55 329
e 55 331
e 55 335
e 55 337
e 55 342
e 55 350
e 55 358
e 55 364
e 55 371
e 55 377
e 55 388
e 55 406
e 55 412
e 55 428
e 55 436
e 55 440
e 55 479
e 55 485
e 55 489
e 56 62
e 56 71
e 56 105
e 56 113
e 56 125
e 56 153
e 56 171
e 56 199
e 56 207
e 56 211
e 56 247
e 56 248
e 56 251
e 56 274
e 56 281
e 56 284
e 56 288
e 56 304
e 56 313
e 56 326
e 56 351
e 56 362
e 56 370
e 56 385
e 56 390
e 56 403
e 56 439
e 56 452
e 56 476
e 56 479
e 56 493
e 56 498
e 57 65
e 57 96
e 57 100
e 57 122
e 57 127
e 57 141
e 57 147
e 57 161
e 57 169
e 57 176
e 57 177
e 57 194
e 57 199
e 57 200
e 57 207
e 57 214
e 57 217
e 57 218
e 57 242
e 57 247
e 57 250
e 57 261
e 57 262
e 57 267
e 57 288
e 57 290
e 57 323
e 57 330
e 57 343
e 57 354
e 57 364
e 57 388
e 57 401
e 57 408
e 57 418
e 57 440
e 57 441
e 57 453
e 57 465
e 57 473
e 57 489
e 58 61
e 58 62
e 58 66
e 58 70
e 58 83
e 58 94
e 58 109
e 58 111
e 58 140
e 58 150
e 58 178
e 58 191
e 58 230
e 58 262
e 58 263
e 58 272
e 58 285
e 58 287
e 58 292
e 58 346
e 58 359
e 58 371
e 58 373
e 58 375
e 58 385
e 58 396
e 58 404
e 58 411
e 58 424
e 58 451
e 58 478
e 58 479
e 58 481
e 58 483
e 58 485
e 58 490
e 59 60
e 59 61
e 59 70
e 59 76
e 59 85
e 59 97
e 59 102
e 59 131
e 59 148
e 59 152
e 59 167
e 59 184
e 59 188
e 59 191
e 59 214
e 59 245
e 59 246
e 59 258
e 59 261
e 59 271
e 59 273
e 59 275
e 59 290
e 59 295
e 59 299
e 59 307
e 59 318
e 59 321
e 59 323
e 59 331
e 59 335
e 59 348
e 59 360
e 59 364
e 59 400
e 59 420
e 59 429
e 59 430
e 59 450
e 59 456
e 59 461
e 59 463
e 59 486
e 59 487
e 59 491
e 59 500
e 60 65
e 60 66
e 60 67
e 60 106
e 60 107
e 60 133
e 60 136
e 60 153
e 60 154
e 60 155
e 60 169
e 60 171
e 60 174
e 60 194
e 60 195
e 60 206
e 60 225
e 60 241
e 60 258
e 60 259
e 60 262
e 60 270
e 60 280
e 60 281
e 60 288
e 60 299
e 60 306
e 60 320
e 60 326
e 60 329
e 60 342
e 60 355
e 60 357
e 60 363
e 60 386
e 60 390
e 60 395
e 60 416
e 60 429
e 60 430
e 60 442
e 60 446
e 60 447
e 60 449
e 60 457
e 60 464
e 60 489
e 61 99
e 61 121
e 61 125
e 61 161
e 61 181
e 61 185
e 61 193
e 61 209
e 61 213
e 61 233
e 61 240
e 61 255
e 61 257
e 61 259
e 61 265
e 61 306
e 61 312
e 61 316
e 61 318
e 61 339
e 61 344
e 61 365
e 61 366
e 61 385
e 61 395
e 61 396
e 61 398
e 61 406
e 61 408
e 61 415
e 61 417
e 61 429
e 61 452
e 61 455
e 61 456
e 61 488
e 61 497
e 61 500
e 62 68
e 62 77
e 62 82
e 62 94
e 62 102
e 62 112
e 62 113
e 62 132
e 62 133
e 62 144
e 62 161
e 62 162
e 62 164
e 62 190
e 62 210
e 62 220
e 62 226
e 62 234
e 62 238
e 62 252
e 62 262
e 62 266
e 62 304
e 62 311
e 62 340
e 62 347
e 62 349
e 62 356
e 62 358
e 62 367
e 62 387
e 62 392
e 62 399
e 62 414
e 62 415
e 62 419
e 62 430
e 62 449
e 62 453
e 62 458
e 62 462
e 62 480
e 62 488
e 62 489
e 62 494
e 63 77
e 63 80
e 63 83
e 63 99
e 63 108
e 63 112
e 63 129
e 63 133
e 63 139
e 63 143
e 63 144
e 63 145
e 63 149
e 63 152
e 63 167
e 63 172
e 63 189
e 63 200
e 63 206
e 63 208
e 63 209
e 63 212
e 63 220
e 63 230
e 63 238
e 63 239
e 63 243
e 63 250
e 63 268
e 63 275
e 63 278
e 63 285
e 63 287
e 63 288
e 63 294
e 63 296
e 63 304
e 63 308
e 63 337
e 63 340
e 63 350
e 63 354
e 63 360
e 63 365
e 63 367
e 63 369
e 63 370
e 63 372
e 63 381
e 63 386
e 63 397
e 63 401
e 63 409
e 63 418
e 63 419
e 63 421
e 63 423
e 63 426
e 63 430
e 63 464
e 63 468
e 63 481
e 63 496
e 64 72
e 64 75
e 64 80
e 64 96
e 64 98
e 64 102
e 64 104
e 64 108
e 64 109
e 64 110
e 64 134
e 64 138
e 64 149
e 64 150
e 64 158
e 64 160
e 64 169
e 64 180
e 64 181
e 64 208
e 64 211
e 64 215
e 64 236
e 64 240
e 64 246
e 64 250
e 64 260
e 64 271
e 64 285
e 64 301
e 64 308
e 64 309
e 64 322
e 64 325
e 64 327
e 64 338
e 64 340
e 64 342
e 64 344
e 64 345
e 64 348
e 64 352
e 64 362
e 64 363
e 64 365
e 64 368
e 64 385
e 64 419
e 64 428
e 64 451
e 64 454
e 64 467
e 64 479
e 65 70
e 65 96
e 65 99
e 65 104
e 65 114
e 65 122
e 65 128
e 65 130
e 65 139
e 65 169
e 65 173
e 65 193
e 65 219
e 65 221
e 65 224
e 65 236
e 65 252
e 65 253
e 65 259
e 65 278
e 65 282
e 65 337
e 65 345
e 65 349
e 65 356
e 65 370
e 65 377
e 65 399
e 65 407
e 65 437
e 65 467
e 66 78
e 66 80
e 66 87
e 66 104
e 66 106
e 66 131
e 66 152
e 66 169
e 66 170
e 66 173
e 66 179
e 66 187
e 66 199
e 66 203
e 66 215
e 66 229
e 66 237
e 66 238
e 66 247
e 66 256
e 66 258
e 66 262
e 66 263
e 66 265
e 66 275
e 66 287
e 66 295
e 66 299
e 66 301
e 66 304
e 66 314
e 66 316
e 66 322
e 66 331
e 66 332
e 66 333
e 66 337
e 66 347
e 66 368
e 66 382
e 66 395
e 66 403
e 66 408
e 66 421
e 66 441
e 66 448
e 66 449
e 66 459
e 66 460
e 66 461
e 66 476
e 66 486
e 67 68
e 67 76
e 67 78
e 67 87
e 67 100
e 67 113
e 67 139
e 67 145
e 67 177
e 67 181
e 67 182
e 67 188
e 67 198
e 67 217
e 67 220
e 67 223
e 67 237
e 67 250
e 67 268
e 67 273
e 67 302
e 67 306
e 67 312
e 67 326
e 67 330
e 67 339
e 67 340
e 67 352
e 67 362
e 67 373
e 67 393
e 67 409
e 67 411
e 67 427
e 67 438
e 67 442
e 67 455
e 67 458
e 67 459
e 67 461
e 67 470
e 67 477
e 67 479
e 68 77
e 68 82
e 68 83
e 68 85
e 68 86
e 68 93
e 68 111
e 68 122
e 68 127
e 68 141
e 68 145
e 68 171
e 68 177
e 68 186
e 68 203
e 68 212
e 68 222
e 68 227
e 68 235
e 68 248
e 68 251
e 68 256
e 68 259
e 68 265
e 68 285
e 68 287
e 68 316
e 68 321
e 68 332
e 68 333
e 68 344
e 68 348
e 68 356
e 68 393
e 68 404
e 68 413
e 68 423
e 68 448
e 68 453
e 68 462
e 68 476
e 68 487
e 68 488
e 68 500
e 69 102
e 69 117
e 69 124
e 69 134
e 69 144
e 69 154
e 69 157
e 69 160
e 69 164
e 69 175
e 69 177
e 69 181
e 69 189
e 69 193
e 69 195
e 69 211
e 69 215
e 69 223
e 69 243
e 69 247
e 69 250
e 69 259
e 69 276
e 69 284
e 69 289
e 69 296
e 69 297
e 69 298
e 69 316
e 69 321
e 69 331
e 69 332
e 69 337
e 69 339
e 69 355
e 69 366
e 69 384
e 69 385
e 69 394
e 69 410
e 69 414
e 69 416
e 69 419
e 69 431
e 69 442
e 69 460
e 70 79
e 70 81
e 70 87
e 70 93
e 70 105
e 70 125
e 70 126
e 70 128
e 70 129
e 70 173
e 70 184
e 70 202
e 70 210
e 70 227
e 70 240
e 70 252
e 70 261
e 70 274
e 70 278
e 70 285
e 70 288
e 70 291
e 70 324
e 70 365
e 70 376
e 70 382
e 70 401
e 70 423
e 70 427
e 70 430
e 70 456
e 70 463
e 70 481
e 71 74
e 71 88
e 71 91
e 71 122
e 71 128
e 71 140
e 71 141
e 71 150
e 71 170
e 71 195
e 71 203
e 71 211
e 71 218
e 71 221
e 71 224
e 71 227
e 71 240
e 71 242
e 71 245
e 71 250
e 71 253
e 71 256
e 71 258
e 71 274
e 71 279
e 71 281
e 71 291
e 71 297
e 71 312
e 71 326
e 71 331
e 71 341
e 71 379
e 71 384
e 71 393
e 71 401
e 71 405
e 71 406
e 71 412
e 71 416
e 71 428
e 71 435
e 71 437
e 71 442
e 71 446
e 71 448
e 71 480
e 71 486
e 71 496
e 72 85
e 72 92
e 72 101
e 72 103
e 72 132
e 72 178
e 72 197
e 72 202
e 72 234
e 72 243
e 72 246
e 72 263
e 72 278
e 72 279
e 72 286
e 72 292
e 72 301
e 72 306
e 72 308
e 72 319
e 72 349
e 72 372
e 72 406
e 72 407
e 72 409
e 72 418
e 72 421
e 72 424
e 72 441
e 72 478
e 72 498
e 73 75
e 73 81
e 73 83
e 73 87
e 73 117
e 73 120
e 73 147
e 73 174
e 73 179
e 73 187
e 73 191
e 73 192
e 73 196
e 73 208
e 73 228
e 73 241
e 73 242
e 73 248
e 73 255
e 73 262
e 73 265
e 73 269
e 73 283
e 73 291
e 73 293
e 73 306
e 73 332
e 73 342
e 73 347
e 73 365
e 73 401
e 73 426
e 73 457
e 73 459
e 73 484
e 73 489
e 73 490
e 73 499
e 74 79
e 74 82
e 74 85
e 74 111
e 74 144
e 74 210
e 74 219
e 74 241
e 74 266
e 74 276
e 74 284
e 74 292
e 74 310
e 74 317
e 74 318
e 74 322
e 74 323
e 74 327
e 74 330
e 74 340
e 74 342
e 74 343
e 74 346
e 74 352
e 74 360
e 74 374
e 74 376
e 74 378
e 74 386
e 74 393
e 74 396
e 74 403
e 74 409
e 74 436
e 74 443
e 74 445
e 74 446
e 74 465
e 74 468
e 74 478
e 74 482
e 74 490
e 75 94
e 75 102
e 75 104
e 75 125
e 75 138
e 75 145
e 75 158
e 75 161
e 75 169
e 75 170
e 75 174
e 75 193
e 75 212
e 75 215
e 75 240
e 75 247
e 75 264
e 75 270
e 75 276
e 75 285
e 75 296
e 75 304
e 75 315
e 75 335
e 75 341
e 75 348
e 75 350
e 75 362
e 75 375
e 75 390
e 75 403
e 75 413
e 75 428
e 75 444
e 75 445
e 75 455
e 75 460
e 75 479
e 75 486
e 76 83
e 76 93
e 76 99
e 76 101
e 76 116
e 76 152
e 76 178
e 76 198
e 76 200
e 76 205
e 76 220
e 76 224
e 76 233
e 76 243
e 76 246
e 76 269
e 76 287
e 76 289
e 76 333
e 76 340
e 76 349
e 76 354
e 76 368
e 76 371
e 76 372
e 76 383
e 76 397
e 76 404
e 76 405
e 76 411
e 76 423
e 76 441
e 76 449
e 76 451
e 76 454
e 76 478
e 77 78
e 77 83
e 77 93
e 77 101
e 77 114
e 77 131
e 77 141
e 77 155
e 77 172
e 77 173
e 77 174
e 77 180
e 77 208
e 77 209
e 77 239
e 77 250
e 77 266
e 77 269
e 77 270
e 77 271
e 77 279
e 77 336
e 77 337
e 77 341
e 77 342
e 77 343
e 77 347
e 77 352
e 77 399
e 77 402
e 77 414
e 77 417
e 77 422
e 77 435
e 77 448
e 77 462
e 77 465
e 77 474
e 77 479
e 77 483
e 77 488
e 77 490
e 78 89
e 78 116
e 78 122
e 78 135
e 78 148
e 78 157
e 78 190
e 78 198
e 78 206
e 78 210
e 78 216
e 78 223
e 78 225
e 78 227
e 78 228
e 78 231
e 78 264
e 78 273
e 78 302
e 78 331
e 78 336
e 78 339
e 78 360
e 78 375
e 78 376
e 78 382
e 78 387
e 78 395
e 78 408
e 78 416
e 78 421
e 78 424
e 78 453
e 78 463
e 78 470
e 78 484
e 79 83
e 79 105
e 79 112
e 79 115
e 79 119
e 79 130
e 79 136
e 79 151
e 79 158
e 79 162
e 79 172
e 79 185
e 79 201
e 79 209
e 79 217
e 79 220
e 79 236
e 79 247
e 79 249
e 79 250
e 79 261
e 79 269
e 79 278
e 79 281
e 79 283
e 79 284
e 79 288
e 79 297
e 79 305
e 79 343
e 79 355
e 79 362
e 79 363
e 79 364
e 79 392
e 79 394
e 79 407
e 79 429
e 79 440
e 79 466
e 79 473
e 79 479
e 79 492
e 80 85
e 80 94
e 80 95
e 80 150
e 80 151
e 80 162
e 80 179
e 80 181
e 80 185
e 80 194
e 80 233
e 80 234
e 80 237
e 80 273
e 80 275
e 80 281
e 80 282
e 80 312
e 80 334
e 80 336
e 80 337
e 80 359
e 80 374
e 80 379
e 80 387
e 80 392
e 80 395
e 80 399
e 80 407
e 80 408
e 80 412
e 80 415
e 80 416
e 80 423
e 80 428
e 80 431
e 80 438
e 80 448
e 80 452
e 80 454
e 80 468
e 80 485
e 81 85
e 81 88
e 81 91
e 81 92
e 81 102
e 81 105
e 81 109
e 81 118
e 81 126
e 81 128
e 81 129
e 81 130
e 81 152
e 81 156
e 81 166
e 81 183
e 81 186
e 81 194
e 81 201
e 81 204
e 81 206
e 81 213
e 81 216
e 81 238
e 81 253
e 81 265
e 81 269
e 81 274
e 81 284
e 81 285
e 81 303
e 81 314
e 81 317
e 81 330
e 81 331
e 81 332
e 81 334
e 81 338
e 81 355
e 81 358
e 81 359
e 81 362
e 81 365
e 81 369
e 81 371
e 81 383
e 81 385
e 81 396
e 81 403
e 81 404
e 81 413
e 81 416
e 81 418
e 81 421
e 81 425
e 81 431
e 81 453
e 81 500
e 82 84
e 82 86
e 82 90
e 82 100
e 82 101
e 82 102
e 82 142
e 82 143
e 82 154
e 82 163
e 82 169
e 82 170
e 82 220
e 82 243
e 82 265
e 82 271
e 82 274
e 82 304
e 82 311
e 82 344
e 82 352
e 82 357
e 82 368
e 82 378
e 82 386
e 82 388
e 82 408
e 82 417
e 82 419
e 82 425
e 82 427
e 82 430
e 82 437
e 82 447
e 82 450
e 82 455
e 82 462
e 82 471
e 82 474
e 82 475
e 82 483
e 82 486
e 82 487
e 82 491
e 83 118
e 83 121
e 83 125
e 83 130
e 83 136
e 83 154
e 83 165
e 83 172
e 83 174
e 83 197
e 83 198
e 83 225
e 83 248
e 83 254
e 83 270
e 83 273
e 83 276
e 83 290
e 83 304
e 83 309
e 83 317
e 83 326
e 83 350
e 83 369
e 83 372
e 83 380
e 83 395
e 83 400
e 83 441
e 83 460
e 83 463
e 83 469
e 83 473
e 83 487
e 83 496
e 84 112
e 84 134
e 84 165
e 84 189
e 84 197
e 84 199
e 84 205
e 84 215
e 84 217
e 84 224
e 84 237
e 84 240
e 84 249
e 84 253
e 84 258
e 84 274
e 84 276
e 84 278
e 84 284
e 84 293
e 84 298
e 84 312
e 84 322
e 84 336
e 84 338
e 84 353
e 84 356
e 84 358
e 84 360
e 84 373
e 84 387
e 84 388
e 84 399
e 84 403
e 84 411
e 84 424
e 84 426
e 84 456
e 84 460
e 84 465
e 84 472
e 84 500
e 85 86
e 85 90
e 85 93
e 85 99
e 85 123
e 85 138
e 85 144
e 85 145
e 85 158
e 85 185
e 85 189
e 85 235
e 85 236
e 85 241
e 85 255
e 85 257
e 85 261
e 85 275
e 85 288
e 85 289
e 85 296
e 85 308
e 85 309
e 85 313
e 85 319
e 85 332
e 85 350
e 85 380
e 85 406
e 85 408
e 85 417
e 85 429
e 85 457
e 85 472
e 86 87
e 86 112
e 86 126
e 86 129
e 86 130
e 86 145
e 86 151
e 86 154
e 86 184
e 86 215
e 86 216
e 86 221
e 86 222
e 86 225
e 86 237
e 86 258
e 86 279
e 86 307
e 86 318
e 86 348
e 86 354
e 86 368
e 86 369
e 86 380
e 86 384
e 86 392
e 86 394
e 86 402
e 86 416
e 86 426
e 86 434
e 86 436
e 86 438
e 86 443
e 86 448
e 86 458
e 86 462
e 86 464
e 86 481
e 87 98
e 87 103
e 87 108
e 87 114
e 87 122
e 87 132
e 87 135
e 87 138
e 87 160
e 87 163
e 87 168
e 87 176
e 87 178
e 87 180
e 87 198
e 87 221
e 87 229
e 87 256
e 87 270
e 87 279
e 87 282
e 87 285
e 87 291
e 87 312
e 87 318
e 87 319
e 87 339
e 87 346
e 87 347
e 87 348
e 87 365
e 87 375
e 87 388
e 87 402
e 87 407
e 87 426
e 87 435
e 87 438
e 87 439
e 87 443
e 87 456
e 87 476
e 87 479
e 87 500
e 88 92
e 88 113
e 88 120
e 88 136
e 88 146
e 88 148
e 88 149
e 88 155
e 88 161
e 88 189
e 88 200
e 88 205
e 88 207
e 88 233
e 88 234
e 88 236
e 88 249
e 88 253
e 88 264
e 88 272
e 88 278
e 88 280
e 88 289
e 88 322
e 88 325
e 88 353
e 88 375
e 88 381
e 88 392
e 88 400
e 88 403
e 88 437
e 88 438
e 88 442
e 88 449
e 88 453
e 88 477
e 88 485
e 88 491
e 89 113
e 89 117
e 89 127
e 89 131
e 89 134
e 89 149
e 89 170
e 89 173
e 89 180
e 89 185
e 89 190
e 89 205
e 89 211
e 89 248
e 89 250
e 89 263
e 89 285
e 89 300
e 89 321
e 89 331
e 89 332
e 89 348
e 89 358
e 89 361
e 89 398
e 89 412
e 89 415
e 89 416
e 89 420
e 89 429
e 89 458
e 89 464
e 89 480
e 89 481
e 89 487
e 89 497
e 90 91
e 90 108
e 90 111
e 90 113
e 90 114
e 90 124
e 90 131
e 90 132
e 90 136
e 90 137
e 90 148
e 90 155
e 90 158
e 90 160
e 90 172
e 90 174
e 90 183
e 90 197
e 90 204
e 90 209
e 90 219
e 90 257
e 90 281
e 90 288
e 90 297
e 90 313
e 90 315
e 90 317
e 90 322
e 90 339
e 90 355
e 90 356
e 90 361
e 90 393
e 90 400
e 90 407
e 90 410
e 90 420
e 90 428
e 90 434
e 90 455
e 90 459
e 90 481
e 90 488
e 90 495
e 91 94
e 91 101
e 91 105
e 91 106
e 91 110
e 91 125
e 91 135
e 91 145
e 91 159
e 91 177
e 91 189
e 91 209
e 91 234
e 91 256
e 91 272
e 91 277
e 91 281
e 91 310
e 91 330
e 91 337
e 91 358
e 91 377
e 91 386
e 91 403
e 91 406
e 91 414
e 91 416
e 91 422
e 91 425
e 91 426
e 91 427
e 91 449
e 91 454
e 91 461
e 91 472
e 91 487
e 91 492
e 91 494
e 91 496
e 92 105
e 92 118
e 92 123
e 92 143
e 92 144
e 92 149
e 92 156
e 92 204
e 92 213
e 92 222
e 92 243
e 92 245
e 92 255
e 92 258
e 92 275
e 92 288
e 92 296
e 92 310
e 92 324
e 92 325
e 92 356
e 92 365
e 92 369
e 92 371
e 92 372
e 92 376
e 92 390
e 92 399
e 92 402
e 92 408
e 92 409
e 92 412
e 92 413
e 92 419
e 92 424
e 92 434
e 92 441
e 92 454
e 92 479
e 92 495
e 92 500
e 93 99
e 93 104
e 93 114
e 93 117
e 93 122
e 93 150
e 93 162
e 93 163
e 93 169
e 93 170
e 93 172
e 93 177
e 93 182
e 93 186
e 93 188
e 93 197
e 93 200
e 93 212
e 93 215
e 93 219
e 93 228
e 93 232
e 93 239
e 93 240
e 93 255
e 93 259
e 93 264
e 93 272
e 93 278
e 93 283
e 93 297
e 93 303
e 93 304
e 93 326
e 93 344
e 93 349
e 93 362
e 93 374
e 93 385
e 93 395
e 93 396
e 93 419
e 93 424
e 93 436
e 93 451
e 93 453
e 93 474
e 93 485
e 94 95
e 94 143
e 94 152
e 94 167
e 94 178
e 94 191
e 94 202
e 94 214
e 94 224
e 94 226
e 94 237
e 94 252
e 94 253
e 94 258
e 94 262
e 94 265
e 94 272
e 94 289
e 94 305
e 94 313
e 94 326
e 94 368
e 94 390
e 94 395
e 94 404
e 94 407
e 94 424
e 94 427
e 94 438
e 94 441
e 94 450
e 94 455
e 94 458
e 94 479
e 95 103
e 95 108
e 95 122
e 95 127
e 95 135
e 95 158
e 95 180
e 95 200
e 95 211
e 95 248
e 95 253
e 95 254
e 95 263
e 95 279
e 95 280
e 95 309
e 95 323
e 95 338
e 95 366
e 95 377
e 95 383
e 95 390
e 95 407
e 95 408
e 95 424
e 95 426
e 95 433
e 95 450
e 95 468
e 95 488
e 95 494
e 95 495
e 96 100
e 96 101
e 96 104
e 96 114
e 96 116
e 96 117
e 96 123
e 96 128
e 96 129
e 96 138
e 96 148
e 96 156
e 96 162
e 96 176
e 96 179
e 96 181
e 96 189
e 96 201
e 96 207
e 96 214
e 96 243
e 96 246
e 96 249
e 96 267
e 96 279
e 96 304
e 96 305
e 96 333
e 96 336
e 96 353
e 96 355
e 96 363
e 96 385
e 96 409
e 96 437
e 96 467
e 96 470
e 96 498
e 97 100
e 97 125
e 97 131
e 97 133
e 97 141
e 97 159
e 97 163
e 97 168
e 97 169
e 97 187
e 97 190
e 97 198
e 97 199
e 97 222
e 97 226
e 97 230
e 97 232
e 97 248
e 97 256
e 97 268
e 97 279
e 97 280
e 97 288
e 97 317
e 97 318
e 97 325
e 97 334
e 97 347
e 97 372
e 97 373
e 97 396
e 97 400
e 97 404
e 97 410
e 97 411
e 97 423
e 97 428
e 97 447
e 97 451
e 97 467
e 97 479
e 97 487
e 97 498
e 97 500
e 98 103
e 98 111
e 98 114
e 98 135
e 98 137
e 98 164
e 98 170
e 98 174
e 98 179
e 98 185
e 98 187
e 98 191
e 98 192
e 98 194
e 98 195
e 98 203
e 98 211
e 98 217
e 98 226
e 98 231
e 98 241
e 98 270
e 98 306
e 98 308
e 98 322
e 98 324
e 98 333
e 98 340
e 98 347
e 98 349
e 98 384
e 98 393
e 98 397
e 98 410
e 98 413
e 98 420
e 98 450
e 98 452
e 98 460
e 98 465
e 98 471
e 98 477
e 99 101
e 99 102
e 99 110
e 99 129
e 99 138
e 99 146
e 99 162
e 99 173
e 99 192
e 99 245
e 99 256
e 99 274
e 99 285
e 99 286
e 99 293
e 99 294
e 99 333
e 99 361
e 99 369
e 99 372
e 99 394
e 99 410
e 99 419
e 99 443
e 99 444
e 99 446
e 99 458
e 99 491
e 99 497
e 99 500
e 100 102
e 100 111
e 100 140
e 100 152
e 100 164
e 100 185
e 100 186
e 100 193
e 100 201
e 100 210
e 100 235
e 100 240
e 100 250
e 100 254
e 100 263
e 100 293
e 100 331
e 100 345
e 100 379
e 100 385
e 100 391
e 100 407
e 100 452
e 100 455
e 100 471
e 100 489
e 100 496
e 100 497
e 100 498
e 100 500
e 101 122
e 101 192
e 101 202
e 101 207
e 101 211
e 101 212
e 101 213
e 101 222
e 101 225
e 101 227
e 101 232
e 101 235
e 101 242
e 101 252
e 101 256
e 101 259
e 101 291
e 101 295
e 101 299
e 101 301
e 101 305
e 101 312
e 101 328
e 101 343
e 101 348
e 101 352
e 101 356
e 101 358
e 101 370
e 101 376
e 101 386
e 101 387
e 101 398
e 101 415
e 101 416
e 101 421
e 101 428
e 101 482
e 101 486
e 102 108
e 102 111
e 102 120
e 102 124
e 102 125
e 102 137
e 102 147
e 102 155
e 102 161
e 102 165
e 102 167
e 102 170
e 102 194
e 102 219
e 102 228
e 102 235
e 102 250
e 102 264
e 102 285
e 102 290
e 102 307
e 102 313
e 102 327
e 102 332
e 102 338
e 102 383
e 102 405
e 102 409
e 102 413
e 102 416
e 102 424
e 102 430
e 102 431
e 102 433
e 102 443
e 102 460
e 102 482
e 102 486
e 102 498
e 103 108
e 103 117
e 103 152
e 103 163
e 103 177
e 103 215
e 103 218
e 103 239
e 103 246
e 103 247
e 103 268
e 103 274
e 103 280
e 103 282
e 103 301
e 103 352
e 103 370
e 103 372
e 103 374
e 103 383
e 103 403
e 103 415
e 103 423
e 103 427
e 103 431
e 103 433
e 103 463
e 103 484
e 103 499
e 104 122
e 104 126
e 104 137
e 104 139
e 104 142
e 104 149
e 104 166
e 104 167
e 104 168
e 104 169
e 104 183
e 104 201
e 104 206
e 104 208
e 104 221
e 104 231
e 104 234
e 104 238
e 104 240
e 104 255
e 104 262
e 104 274
e 104 276
e 104 277
e 104 300
e 104 312
e 104 317
e 104 322
e 104 323
e 104 329
e 104 350
e 104 353
e 104 355
e 104 356
e 104 368
e 104 375
e 104 381
e 104 387
e 104 398
e 104 403
e 104 420
e 104 436
e 104 439
e 104 450
e 104 480
e 104 483
e 104 493
e 105 119
e 105 127
e 105 130
e 105 134
e 105 160
e 105 168
e 105 190
e 105 191
e 105 200
e 105 213
e 105 222
e 105 240
e 105 244
e 105 248
e 105 253
e 105 258
e 105 269
e 105 282
e 105 287
e 105 291
e 105 297
e 105 305
e 105 321
e 105 328
e 105 336
e 105 355
e 105 358
e 105 359
e 105 371
e 105 380
e 105 391
e 105 406
e 105 415
e 105 416
e 105 419
e 105 420
e 105 422
e 105 428
e 105 431
e 105 433
e 105 473
e 105 477
e 105 481
e 105 482
e 105 496
e 106 110
e 106 120
e 106 125
e 106 145
e 106 151
e 106 190
e 106 224
e 106 231
e 106 234
e 106 242
e 106 244
e 106 250
e 106 258
e 106 266
e 106 274
e 106 279
e 106 284
e 106 285
e 106 288
e 106 304
e 106 310
e 106 318
e 106 319
e 106 322
e 106 324
e 106 331
e 106 364
e 106 365
e 106 384
e 106 398
e 106 412
e 106 429
e 106 433
e 106 438
e 106 440
e 106 454
e 107 112
e 107 117
e 107 121
e 107 126
e 107 133
e 107 163
e 107 181
e 107 193
e 107 206
e 107 213
e 107 215
e 107 221
e 107 224
e 107 227
e 107 229
e 107 254
e 107 302
e 107 307
e 107 308
e 107 317
e 107 327
e 107 332
e 107 342
e 107 364
e 107 369
e 107 377
e 107 380
e 107 385
e 107 387
e 107 388
e 107 390
e 107 391
e 107 407
e 107 408
e 107 410
e 107 417
e 107 433
e 107 437
e 107 452
e 107 458
e 107 467
e 107 474
e 107 475
e 107 480
e 107 498
e 108 122
e 108 123
e 108 137
e 108 143
e 108 147
e 108 162
e 108 179
e 108 186
e 108 193
e 108 195
e 108 196
e 108 203
e 108 210
e 108 211
e 108 215
e 108 223
e 108 228
e 108 231
e 108 236
e 108 251
e 108 259
e 108 270
e 108 278
e 108 294
e 108 327
e 108 328
e 108 343
e 108 352
e 108 369
e 108 377
e 108 379
e 108 398
e 108 411
e 108 417
e 108 472
e 108 478
e 108 479
e 109 142
e 109 159
e 109 161
e 109 173
e 109 180
e 109 194
e 109 197
e 109 205
e 109 206
e 109 214
e 109 227
e 109 237
e 109 239
e 109 263
e 109 264
e 109 270
e 109 296
e 109 298
e 109 336
e 109 348
e 109 357
e 109 362
e 109 373
e 109 379
e 109 381
e 109 384
e 109 396
e 109 407
e 109 415
e 109 427
e 109 441
e 109 467
e 109 473
e 109 494
e 109 498
e 110 123
e 110 137
e 110 138
e 110 143
e 110 144
e 110 153
e 110 160
e 110 193
e 110 194
e 110 195
e 110 200
e 110 206
e 110 223
e 110 227
e 110 266
e 110 270
e 110 276
e 110 280
e 110 284
e 110 288
e 110 298
e 110 301
e 110 317
e 110 318
e 110 334
e 110 361
e 110 376
e 110 381
e 110 390
e 110 393
e 110 398
e 110 402
e 110 431
e 110 440
e 110 444
e 110 456
e 110 463
e 110 472
e 110 478
e 110 491
e 110 496
e 111 136
e 111 140
e 111 159
e 111 160
e 111 169
e 111 170
e 111 173
e 111 185
e 111 191
e 111 193
e 111 214
e 111 222
e 111 227
e 111 229
e 111 248
e 111 249
e 111 258
e 111 263
e 111 269
e 111 293
e 111 300
e 111 309
e 111 312
e 111 326
e 111 335
e 111 345
e 111 348
e 111 353
e 111 359
e 111 370
e 111 382
e 111 383
e 111 393
e 111 399
e 111 415
e 111 430
e 111 433
e 111 443
e 111 469
e 111 472
e 111 478
e 111 479
e 111 484
e 111 485
e 111 494
e 112 113
e 112 121
e 112 127
e 112 164
e 112 175
e 112 184
e 112 191
e 112 196
e 112 198
e 112 204
e 112 228
e 112 232
e 112 238
e 112 248
e 112 252
e 112 279
e 112 286
e 112 302
e 112 308
e 112 324
e 112 339
e 112 340
e 112 346
e 112 371
e 112 391
e 112 392
e 112 401
e 112 426
e 112 438
e 112 440
e 112 451
e 112 462
e 112 474
e 112 490
e 113 124
e 113 132
e 113 141
e 113 153
e 113 157
e 113 159
e 113 160
e 113 161
e 113 169
e 113 172
e 113 176
e 113 188
e 113 195
e 113 206
e 113 216
e 113 222
e 113 223
e 113 226
e 113 228
e 113 243
e 113 245
e 113 250
e 113 256
e 113 258
e 113 268
e 113 277
e 113 283
e 113 284
e 113 286
e 113 289
e 113 295
e 113 307
e 113 317
e 113 319
e 113 325
e 113 337
e 113 368
e 113 398
e 113 402
e 113 405
e 113 421
e 113 427
e 113 431
e 113 433
e 113 435
e 113 440
e 113 443
e 113 446
e 113 455
e 113 472
e 113 473
e 113 477
e 113 481
e 113 500
e 114 125
e 114 128
e 114 147
e 114 150
e 114 151
e 114 155
e 114 156
e 114 175
e 114 195
e 114 204
e 114 217
e 114 219
e 114 220
e 114 236
e 114 243
e 114 256
e 114 272
e 114 280
e 114 283
e 114 290
e 114 291
e 114 305
e 114 309
e 114 311
e 114 324
e 114 326
e 114 337
e 114 343
e 114 360
e 114 366
e 114 385
e 114 390
e 114 417
e 114 423
e 114 429
e 114 439
e 114 444
e 114 460
e 114 485
e 114 489
e 114 499
e 115 122
e 115 126
e 115 133
e 115 134
e 115 136
e 115 146
e 115 151
e 115 162
e 115 164
e 115 168
e 115 176
e 115 191
e 115 207
e 115 208
e 115 211
e 115 224
e 115 244
e 115 248
e 115 278
e 115 283
e 115 286
e 115 301
e 115 321
e 115 322
e 115 353
e 115 370
e 115 399
e 115 412
e 115 414
e 115 459
e 115 461
e 115 477
e 115 484
e 115 486
e 115 498
e 116 128
e 116 137
e 116 140
e 116 155
e 116 162
e 116 176
e 116 180
e 116 181
e 116 183
e 116 188
e 116 190
e 116 217
e 116 219
e 116 231
e 116 239
e 116 262
e 116 263
e 116 285
e 116 303
e 116 305
e 116 316
e 116 319
e 116 326
e 116 327
e 116 342
e 116 344
e 116 357
e 116 368
e 116 377
e 116 386
e 116 393
e 116 400
e 116 411
e 116 412
e 116 416
e 116 421
e 116 433
e 116 435
e 116 439
e 116 448
e 116 453
e 116 458
e 116 462
e 116 463
e 116 484
e 116 499
e 117 134
e 117 137
e 117 179
e 117 180
e 117 203
e 117 204
e 117 205
e 117 216
e 117 219
e 117 232
e 117 241
e 117 244
e 117 247
e 117 250
e 117 269
e 117 280
e 117 309
e 117 315
e 117 319
e 117 323
e 117 325
e 117 329
e 117 330
e 117 342
e 117 385
e 117 390
e 117 391
e 117 397
e 117 416
e 117 427
e 117 456
e 117 468
e 117 470
e 117 476
e 117 480
e 117 484
e 117 493
e 118 119
e 118 127
e 118 132
e 118 143
e 118 161
e 118 171
e 118 173
e 118 180
e 118 181
e 118 190
e 118 191
e 118 195
e 118 196
e 118 197
e 118 206
e 118 207
e 118 211
e 118 215
e 118 218
e 118 268
e 118 270
e 118 286
e 118 291
e 118 294
e 118 295
e 118 301
e 118 321
e 118 323
e 118 331
e 118 332
e 118 337
e 118 339
e 118 349
e 118 350
e 118 370
e 118 382
e 118 400
e 118 406
e 118 460
e 118 468
e 118 481
e 118 494
e 119 131
e 119 133
e 119 165
e 119 166
e 119 175
e 119 179
e 119 180
e 119 193
e 119 214
e 119 216
e 119 233
e 119 248
e 119 258
e 119 262
e 119 300
e 119 349
e 119 363
e 119 374
e 119 376
e 119 378
e 119 381
e 119 411
e 119 424
e 119 436
e 119 443
e 119 445
e 119 446
e 119 466
e 119 469
e 119 474
e 120 121
e 120 126
e 120 139
e 120 145
e 120 151
e 120 161
e 120 179
e 120 185
e 120 189
e 120 193
e 120 198
e 120 199
e 120 204
e 120 223
e 120 224
e 120 226
e 120 234
e 120 247
e 120 275
e 120 279
e 120 280
e 120 308
e 120 313
e 120 318
e 120 326
e 120 341
e 120 345
e 120 348
e 120 354
e 120 367
e 120 371
e 120 402
e 120 403
e 120 418
e 120 448
e 120 451
e 120 463
e 120 466
e 120 468
e 120 472
e 120 483
e 120 486
e 120 487
e 120 489
e 120 500
e 121 124
e 121 131
e 121 135
e 121 142
e 121 154
e 121 159
e 121 167
e 121 185
e 121 190
e 121 194
e 121 198
e 121 217
e 121 239
e 121 255
e 121 258
e 121 274
e 121 283
e 121 284
e 121 290
e 121 308
e 121 323
e 121 332
e 121 341
e 121 345
e 121 347
e 121 348
e 121 374
e 121 375
e 121 385
e 121 395
e 121 398
e 121 408
e 121 411
e 121 419
e 121 425
e 121 430
e 121 443
e 121 471
e 121 490
e 121 499
e 122 125
e 122 128
e 122 135
e 122 156
e 122 196
e 122 203
e 122 229
e 122 244
e 122 247
e 122 260
e 122 262
e 122 264
e 122 281
e 122 288
e 122 293
e 122 319
e 122 343
e 122 350
e 122 357
e 122 399
e 122 401
e 122 408
e 122 413
e 122 425
e 122 433
e 122 435
e 122 440
e 122 447
e 122 459
e 122 461
e 122 464
e 122 466
e 122 479
e 122 487
e 122 488
e 123 127
e 123 131
e 123 166
e 123 174
e 123 183
e 123 189
e 123 199
e 123 236
e 123 239
e 123 242
e 123 244
e 123 247
e 123 260
e 123 284
e 123 298
e 123 306
e 123 310
e 123 313
e 123 334
e 123 337
e 123 344
e 123 351
e 123 367
e 123 372
e 123 392
e 123 406
e 123 416
e 123 418
e 123 425
e 123 432
e 123 440
e 123 447
e 123 454
e 123 463
e 123 464
e 123 467
e 123 470
e 123 482
e 123 490
e 124 130
e 124 163
e 124 164
e 124 168
e 124 186
e 124 191
e 124 201
e 124 205
e 124 218
e 124 226
e 124 229
e 124 244
e 124 247
e 124 260
e 124 270
e 124 276
e 124 277
e 124 306
e 124 308
e 124 309
e 124 312
e 124 316
e 124 324
e 124 333
e 124 355
e 124 388
e 124 407
e 124 411
e 124 414
e 124 433
e 124 457
e 124 458
e 124 476
e 124 483
e 124 484
e 125 130
e 125 159
e 125 167
e 125 169
e 125 185
e 125 205
e 125 217
e 125 220
e 125 225
e 125 232
e 125 233
e 125 236
e 125 237
e 125 244
e 125 263
e 125 272
e 125 284
e 125 301
e 125 314
e 125 320
e 125 324
e 125 325
e 125 347
e 125 352
e 125 365
e 125 371
e 125 382
e 125 383
e 125 388
e 125 391
e 125 408
e 125 410
e 125 417
e 125 422
e 125 428
e 125 458
e 125 473
e 125 474
e 125 482
e 125 491
e 126 132
e 126 137
e 126 140
e 126 141
e 126 142
e 126 147
e 126 166
e 126 177
e 126 178
e 126 220
e 126 225
e 126 228
e 126 243
e 126 247
e 126 248
e 126 261
e 126 320
e 126 351
e 126 355
e 126 364
e 126 409
e 126 440
e 126 442
e 126 464
e 126 466
e 126 487
e 126 492
e 126 497
e 127 129
e 127 150
e 127 165
e 127 171
e 127 193
e 127 202
e 127 206
e 127 207
e 127 208
e 127 210
e 127 229
e 127 232
e 127 239
e 127 253
e 127 256
e 127 292
e 127 298
e 127 304
e 127 316
e 127 323
e 127 324
e 127 326
e 127 328
e 127 333
e 127 339
e 127 348
e 127 352
e 127 358
e 127 371
e 127 381
e 127 384
e 127 401
e 127 416
e 127 445
e 127 459
e 127 463
e 127 486
e 127 489
e 128 144
e 128 151
e 128 165
e 128 180
e 128 190
e 128 195
e 128 198
e 128 202
e 128 203
e 128 247
e 128 253
e 128 276
e 128 291
e 128 292
e 128 305
e 128 317
e 128 322
e 128 324
e 128 327
e 128 333
e 128 338
e 128 346
e 128 355
e 128 358
e 128 363
e 128 372
e 128 373
e 128 389
e 128 399
e 128 414
e 128 423
e 128 443
e 128 471
e 128 475
e 128 477
e 128 484
e 128 486
e 128 493
e 128 500
e 129 131
e 129 132
e 129 138
e 129 157
e 129 161
e 129 162
e 129 163
e 129 186
e 129 223
e 129 224
e 129 242
e 129 244
e 129 245
e 129 253
e 129 268
e 129 271
e 129 278
e 129 311
e 129 336
e 129 337
e 129 347
e 129 377
e 129 379
e 129 401
e 129 407
e 129 420
e 129 441
e 129 443
e 129 468
e 129 484
e 129 487
e 129 488
e 130 132
e 130 140
e 130 146
e 130 148
e 130 150
e 130 159
e 130 191
e 130 193
e 130 198
e 130 211
e 130 254
e 130 266
e 130 272
e 130 277
e 130 289
e 130 291
e 130 296
e 130 314
e 130 337
e 130 364
e 130 365
e 130 369
e 130 374
e 130 392
e 130 395
e 130 406
e 130 410
e 130 421
e 130 432
e 130 439
e 130 457
e 130 461
e 130 469
e 130 471
e 130 473
e 130 476
e 131 155
e 131 161
e 131 169
e 131 176
e 131 187
e 131 198
e 131 202
e 131 217
e 131 218
e 131 236
e 131 245
e 131 256
e 131 260
e 131 276
e 131 277
e 131 294
e 131 305
e 131 319
e 131 320
e 131 323
e 131 331
e 131 336
e 131 338
e 131 340
e 131 341
e 131 357
e 131 367
e 131 397
e 131 404
e 131 439
e 131 444
e 131 445
e 131 446
e 131 451
e 131 454
e 131 471
e 131 481
e 131 482
e 131 489
e 131 490
e 131 496
e 132 142
e 132 148
e 132 165
e 132 167
e 132 175
e 132 184
e 132 201
e 132 210
e 132 222
e 132 250
e 132 272
e 132 276
e 132 282
e 132 299
e 132 316
e 132 317
e 132 331
e 132 360
e 132 372
e 132 399
e 132 418
e 132 425
e 132 433
e 132 450
e 132 451
e 132 461
e 132 481
e 132 489
e 133 137
e 133 141
e 133 155
e 133 158
e 133 160
e 133 183
e 133 203
e 133 206
e 133 239
e 133 241
e 133 260
e 133 261
e 133 281
e 133 294
e 133 295
e 133 322
e 133 339
e 133 341
e 133 342
e 133 350
e 133 361
e 133 375
e 133 386
e 133 403
e 133 435
e 133 462
e 133 464
e 133 468
e 133 481
e 133 486
e 133 488
e 133 495
e 133 497
e 134 139
e 134 146
e 134 149
e 134 158
e 134 164
e 134 186
e 134 201
e 134 202
e 134 208
e 134 216
e 134 218
e 134 220
e 134 223
e 134 233
e 134 234
e 134 244
e 134 253
e 134 260
e 134 263
e 134 274
e 134 275
e 134 292
e 134 296
e 134 304
e 134 334
e 134 360
e 134 367
e 134 372
e 134 380
e 134 385
e 134 389
e 134 390
e 134 407
e 134 418
e 134 422
e 134 435
e 134 437
e 134 442
e 134 443
e 134 448
e 134 451
e 134 474
e 134 485
e 134 490
e 134 491
e 134 492
e 135 147
e 135 152
e 135 160
e 135 170
e 135 172
e 135 174
e 135 176
e 135 182
e 135 198
e 135 230
e 135 234
e 135 254
e 135 256
e 135 257
e 135 259
e 135 262
e 135 264
e 135 272
e 135 281
e 135 297
e 135 328
e 135 350
e 135 352
e 135 362
e 135 366
e 135 409
e 135 413
e 135 426
e 135 450
e 135 456
e 135 460
e 135 465
e 135 473
e 135 478
e 135 499
e 136 139
e 136 157
e 136 159
e 136 173
e 136 174
e 136 183
e 136 185
e 136 194
e 136 203
e 136 216
e 136 221
e 136 228
e 136 235
e 136 258
e 136 259
e 136 266
e 136 309
e 136 316
e 136 341
e 136 346
e 136 370
e 136 387
e 136 400
e 136 409
e 136 414
e 136 419
e 136 437
e 136 454
e 137 147
e 137 149
e 137 156
e 137 178
e 137 188
e 137 197
e 137 198
e 137 211
e 137 225
e 137 233
e 137 237
e 137 260
e 137 272
e 137 277
e 137 287
e 137 298
e 137 303
e 137 309
e 137 310
e 137 323
e 137 324
e 137 339
e 137 361
e 137 363
e 137 387
e 137 394
e 137 403
e 137 421
e 137 429
e 137 464
e 137 471
e 137 480
e 137 481
e 137 482
e 137 499
e 137 500
e 138 145
e 138 154
e 138 160
e 138 161
e 138 165
e 138 171
e 138 181
e 138 198
e 138 200
e 138 206
e 138 209
e 138 229
e 138 238
e 138 275
e 138 278
e 138 279
e 138 280
e 138 310
e 138 323
e 138 328
e 138 346
e 138 357
e 138 361
e 138 364
e 138 369
e 138 383
e 138 386
e 138 392
e 138 397
e 138 409
e 138 413
e 138 416
e 138 438
e 138 446
e 138 447
e 138 469
e 138 474
e 138 476
e 138 478
e 138 481
e 138 482
e 138 499
e 139 150
e 139 167
e 139 169
e 139 173
e 139 181
e 139 195
e 139 198
e 139 203
e 139 214
e 139 226
e 139 231
e 139 235
e 139 236
e 139 272
e 139 278
e 139 279
e 139 283
e 139 287
e 139 294
e 139 301
e 139 329
e 139 346
e 139 359
e 139 398
e 139 414
e 139 434
e 139 436
e 139 439
e 139 442
e 139 448
e 139 451
e 139 466
e 139 468
e 139 477
e 139 489
e 139 492
e 139 494
e 140 142
e 140 163
e 140 173
e 140 184
e 140 188
e 140 212
e 140 254
e 140 273
e 140 274
e 140 276
e 140 286
e 140 291
e 140 301
e 140 302
e 140 314
e 140 315
e 140 335
e 140 339
e 140 341
e 140 347
e 140 362
e 140 382
e 140 384
e 140 422
e 140 430
e 140 441
e 140 455
e 140 460
e 140 471
e 140 474
e 140 478
e 140 483
e 140 487
e 141 146
e 141 149
e 141 156
e 141 161
e 141 164
e 141 165
e 141 195
e 141 202
e 141 206
e 141 211
e 141 219
e 141 229
e 141 237
e 141 257
e 141 263
e 141 272
e 141 274
e 141 325
e 141 326
e 141 335
e 141 352
e 141 357
e 141 360
e 141 398
e 141 402
e 141 403
e 141 404
e 141 408
e 141 419
e 141 435
e 141 438
e 141 440
e 141 443
e 141 460
e 142 149
e 142 151
e 142 152
e 142 158
e 142 160
e 142 166
e 142 170
e 142 181
e 142 192
e 142 195
e 142 209
e 142 212
e 142 218
e 142 222
e 142 243
e 142 245
e 142 256
e 142 280
e 142 308
e 142 323
e 142 327
e 142 333
e 142 342
e 142 350
e 142 364
e 142 375
e 142 380
e 142 390
e 142 405
e 142 456
e 142 459
e 142 461
e 142 463
e 142 466
e 142 481
e 142 486
e 142 489
e 142 490
e 142 492
e 143 149
e 143 170
e 143 173
e 143 180
e 143 181
e 143 183
e 143 205
e 143 235
e 143 256
e 143 257
e 143 283
e 143 288
e 143 299
e 143 324
e 143 328
e 143 330
e 143 335
e 143 342
e 143 345
e 143 347
e 143 350
e 143 351
e 143 374
e 143 376
e 143 377
e 143 378
e 143 380
e 143 381
e 143 389
e 143 390
e 143 397
e 143 407
e 143 409
e 143 411
e 143 412
e 143 414
e 143 426
e 143 443
e 143 453
e 143 456
e 143 465
e 143 470
e 143 473
e 143 478
e 143 484
e 143 494
e 144 162
e 144 177
e 144 195
e 144 196
e 144 202
e 144 204
e 144 211
e 144 217
e 144 222
e 144 223
e 144 229
e 144 247
e 144 265
e 144 283
e 144 299
e 144 330
e 144 337
e 144 367
e 144 397
e 144 403
e 144 431
e 144 487
e 145 154
e 145 179
e 145 226
e 145 228
e 145 233
e 145 243
e 145 246
e 145 260
e 145 274
e 145 276
e 145 280
e 145 284
e 145 290
e 145 298
e 145 312
e 145 331
e 145 339
e 145 341
e 145 364
e 145 390
e 145 395
e 145 397
e 145 417
e 145 437
e 145 458
e 145 459
e 145 468
e 145 484
e 145 495
e 145 500
e 146 148
e 146 165
e 146 173
e 146 176
e 146 220
e 146 223
e 146 230
e 146 246
e 146 309
e 146 311
e 146 314
e 146 338
e 146 359
e 146 429
e 146 436
e 146 451
e 146 452
e 146 469
e 146 490
e 146 498
e 147 155
e 147 163
e 147 171
e 147 173
e 147 178
e 147 196
e 147 203
e 147 206
e 147 216
e 147 226
e 147 243
e 147 251
e 147 257
e 147 272
e 147 285
e 147 288
e 147 289
e 147 292
e 147 305
e 147 336
e 147 347
e 147 349
e 147 350
e 147 354
e 147 359
e 147 361
e 147 372
e 147 373
e 147 376
e 147 390
e 147 392
e 147 410
e 147 413
e 147 423
e 147 425
e 147 435
e 147 447
e 147 451
e 147 455
e 147 459
e 147 480
e 148 150
e 148 171
e 148 176
e 148 192
e 148 201
e 148 214
e 148 216
e 148 243
e 148 244
e 148 245
e 148 256
e 148 291
e 148 292
e 148 295
e 148 308
e 148 318
e 148 323
e 148 324
e 148 345
e 148 353
e 148 373
e 148 393
e 148 406
e 148 410
e 148 416
e 148 424
e 148 428
e 148 441
e 148 449
e 148 465
e 148 466
e 148 467
e 148 468
e 148 480
e 148 482
e 148 483
e 148 484
e 148 494
e 148 495
e 149 178
e 149 188
e 149 216
e 149 265
e 149 268
e 149 272
e 149 274
e 149 319
e 149 346
e 149 352
e 149 361
e 149 374
e 149 379
e 149 407
e 149 410
e 149 412
e 149 416
e 149 433
e 149 434
e 149 439
e 149 443
e 149 454
e 149 459
e 149 468
e 149 485
e 149 489
e 149 499
e 150 152
e 150 179
e 150 191
e 150 198
e 150 217
e 150 227
e 150 233
e 150 249
e 150 251
e 150 260
e 150 272
e 150 278
e 150 291
e 150 300
e 150 315
e 150 319
e 150 344
e 150 355
e 150 376
e 150 379
e 150 383
e 150 394
e 150 399
e 150 406
e 150 410
e 150 412
e 150 413
e 150 423
e 150 424
e 150 426
e 150 432
e 150 435
e 150 437
e 150 446
e 150 476
e 150 477
e 150 492
e 150 496
e 150 497
e 151 154
e 151 159
e 151 178
e 151 201
e 151 213
e 151 217
e 151 223
e 151 225
e 151 233
e 151 238
e 151 239
e 151 254
e 151 301
e 151 307
e 151 311
e 151 315
e 151 341
e 151 354
e 151 359
e 151 361
e 151 363
e 151 369
e 151 370
e 151 372
e 151 378
e 151 381
e 151 389
e 151 395
e 151 402
e 151 420
e 151 427
e 151 446
e 151 450
e 151 453
e 151 469
e 151 471
e 151 473
e 151 481
e 151 483
e 151 497
e 151 499
e 152 155
e 152 193
e 152 206
e 152 210
e 152 223
e 152 225
e 152 226
e 152 233
e 152 238
e 152 266
e 152 272
e 152 278
e 152 281
e 152 307
e 152 310
e 152 312
e 152 321
e 152 328
e 152 330
e 152 365
e 152 376
e 152 399
e 152 401
e 152 420
e 152 421
e 152 433
e 152 436
e 152 443
e 152 453
e 152 482
e 152 485
e 152 491
e 152 499
e 153 157
e 153 159
e 153 171
e 153 176
e 153 178
e 153 180
e 153 181
e 153 184
e 153 196
e 153 211
e 153 228
e 153 230
e 153 243
e 153 250
e 153 253
e 153 266
e 153 273
e 153 279
e 153 283
e 153 307
e 153 322
e 153 327
e 153 333
e 153 336
e 153 346
e 153 350
e 153 352
e 153 358
e 153 365
e 153 377
e 153 379
e 153 391
e 153 392
e 153 417
e 153 419
e 153 420
e 153 429
e 153 434
e 153 436
e 153 437
e 153 445
e 153 457
e 153 476
e 154 159
e 154 167
e 154 171
e 154 176
e 154 179
e 154 182
e 154 187
e 154 193
e 154 204
e 154 235
e 154 236
e 154 241
e 154 244
e 154 247
e 154 259
e 154 278
e 154 285
e 154 326
e 154 327
e 154 338
e 154 347
e 154 351
e 154 353
e 154 396
e 154 403
e 154 404
e 154 406
e 154 410
e 154 416
e 154 462
e 154 463
e 154 472
e 154 474
e 154 488
e 155 159
e 155 166
e 155 191
e 155 197
e 155 201
e 155 218
e 155 233
e 155 234
e 155 259
e 155 269
e 155 275
e 155 291
e 155 310
e 155 325
e 155 336
e 155 356
e 155 371
e 155 375
e 155 386
e 155 406
e 155 420
e 155 425
e 155 429
e 155 430
e 155 436
e 155 442
e 155 446
e 155 448
e 155 457
e 155 476
e 155 492
e 155 496
e 155 497
e 156 157
e 156 161
e 156 162
e 156 174
e 156 176
e 156 179
e 156 185
e 156 188
e 156 189
e 156 190
e 156 192
e 156 202
e 156 212
e 156 221
e 156 229
e 156 239
e 156 250
e 156 254
e 156 267
e 156 276
e 156 280
e 156 291
e 156 294
e 156 317
e 156 321
e 156 325
e 156 326
e 156 333
e 156 337
e 156 344
e 156 350
e 156 358
e 156 362
e 156 376
e 156 379
e 156 400
e 156 401
e 156 403
e 156 405
e 156 410
e 156 411
e 156 413
e 156 419
e 156 425
e 156 426
e 156 428
e 156 434
e 156 438
e 156 439
e 156 447
e 156 466
e 156 475
e 156 476
e 156 479
e 156 493
e 157 171
e 157 191
e 157 192
e 157 213
e 157 220
e 157 228
e 157 235
e 157 237
e 157 254
e 157 257
e 157 262
e 157 274
e 157 303
e 157 318
e 157 323
e 157 330
e 157 335
e 157 361
e 157 363
e 157 366
e 157 369
e 157 388
e 157 399
e 157 417
e 157 433
e 157 447
e 157 448
e 157 452
e 157 472
e 157 488
e 157 495
e 158 166
e 158 171
e 158 181
e 158 188
e 158 203
e 158 211
e 158 219
e 158 221
e 158 223
e 158 224
e 158 225
e 158 248
e 158 252
e 158 256
e 158 262
e 158 275
e 158 277
e 158 300
e 158 311
e 158 319
e 158 324
e 158 341
e 158 343
e 158 345
e 158 359
e 158 367
e 158 370
e 158 380
e 158 399
e 158 413
e 158 429
e 158 435
e 158 466
e 158 471
e 158 473
e 158 477
e 158 479
e 159 162
e 159 174
e 159 183
e 159 186
e 159 219
e 159 237
e 159 246
e 159 268
e 159 285
e 159 298
e 159 311
e 159 322
e 159 329
e 159 331
e 159 335
e 159 365
e 159 368
e 159 369
e 159 385
e 159 395
e 159 401
e 159 404
e 159 408
e 159 410
e 159 411
e 159 419
e 159 433
e 159 442
e 159 447
e 159 450
e 159 473
e 159 479
e 159 484
e 159 489
e 159 498
e 159 499
e 160 201
e 160 203
e 160 220
e 160 222
e 160 224
e 160 227
e 160 240
e 160 260
e 160 270
e 160 282
e 160 294
e 160 305
e 160 318
e 160 328
e 160 334
e 160 335
e 160 339
e 160 340
e 160 343
e 160 378
e 160 396
e 160 398
e 160 400
e 160 404
e 160 412
e 160 421
e 160 430
e 160 439
e 160 440
e 160 468
e 160 474
e 160 480
e 160 483
e 160 491
e 160 500
e 161 168
e 161 174
e 161 189
e 161 190
e 161 212
e 161 217
e 161 221
e 161 222
e 161 243
e 161 249
e 161 262
e 161 269
e 161 270
e 161 271
e 161 296
e 161 310
e 161 313
e 161 329
e 161 330
e 161 331
e 161 343
e 161 353
e 161 359
e 161 384
e 161 388
e 161 390
e 161 404
e 161 412
e 161 424
e 161 435
e 161 451
e 161 465
e 161 472
e 161 494
e 162 178
e 162 184
e 162 194
e 162 202
e 162 213
e 162 220
e 162 237
e 162 240
e 162 244
e 162 259
e 162 262
e 162 271
e 162 272
e 162 287
e 162 295
e 162 296
e 162 297
e 162 311
e 162 321
e 162 328
e 162 346
e 162 349
e 162 352
e 162 379
e 162 382
e 162 385
e 162 395
e 162 410
e 162 416
e 162 426
e 162 430
e 162 431
e 162 443
e 162 445
e 162 454
e 162 482
e 162 483
e 162 488
e 163 164
e 163 177
e 163 182
e 163 216
e 163 237
e 163 249
e 163 273
e 163 284
e 163 290
e 163 341
e 163 354
e 163 368
e 163 383
e 163 418
e 163 431
e 163 433
e 163 451
e 163 459
e 163 462
e 163 465
e 163 483
e 163 496
e 163 499
e 163 500
e 164 189
e 164 200
e 164 211
e 164 216
e 164 221
e 164 243
e 164 253
e 164 254
e 164 256
e 164 262
e 164 266
e 164 287
e 164 301
e 164 302
e 164 311
e 164 315
e 164 344
e 164 352
e 164 354
e 164 366
e 164 378
e 164 379
e 164 382
e 164 385
e 164 394
e 164 397
e 164 401
e 164 418
e 164 419
e 164 427
e 164 443
e 164 461
e 164 463
e 164 466
e 164 479
e 164 482
e 164 493
e 164 499
e 165 182
e 165 186
e 165 187
e 165 188
e 165 194
e 165 198
e 165 223
e 165 226
e 165 231
e 165 248
e 165 259
e 165 272
e 165 276
e 165 277
e 165 302
e 165 317
e 165 323
e 165 334
e 165 345
e 165 354
e 165 365
e 165 377
e 165 393
e 165 423
e 165 438
e 165 449
e 165 450
e 165 451
e 165 452
e 165 455
e 165 461
e 165 463
e 165 464
e 165 478
e 165 487
e 165 491
e 165 494
e 165 500
e 166 176
e 166 194
e 166 212
e 166 219
e 166 228
e 166 229
e 166 240
e 166 243
e 166 251
e 166 255
e 166 257
e 166 259
e 166 269
e 166 272
e 166 275
e 166 308
e 166 312
e 166 319
e 166 329
e 166 338
e 166 349
e 166 367
e 166 368
e 166 392
e 166 416
e 166 426
e 166 428
e 166 429
e 166 431
e 166 437
e 166 460
e 166 471
e 166 479
e 166 483
e 166 486
e 166 496
e 166 497
e 167 173
e 167 175
e 167 186
e 167 214
e 167 240
e 167 241
e 167 256
e 167 261
e 167 267
e 167 273
e 167 275
e 167 279
e 167 293
e 167 382
e 167 397
e 167 407
e 167 418
e 167 419
e 167 429
e 167 439
e 167 449
e 167 455
e 167 461
e 167 462
e 167 476
e 167 492
e 167 497
e 168 178
e 168 185
e 168 186
e 168 190
e 168 194
e 168 200
e 168 208
e 168 217
e 168 224
e 168 236
e 168 243
e 168 256
e 168 260
e 168 266
e 168 281
e 168 285
e 168 306
e 168 308
e 168 310
e 168 320
e 168 323
e 168 354
e 168 360
e 168 362
e 168 364
e 168 365
e 168 368
e 168 389
e 168 404
e 168 407
e 168 408
e 168 422
e 168 423
e 168 439
e 168 442
e 168 458
e 168 464
e 168 470
e 168 475
e 168 482
e 168 483
e 168 488
e 168 499
e 169 171
e 169 187
e 169 195
e 169 197
e 169 205
e 169 214
e 169 230
e 169 239
e 169 242
e 169 257
e 169 269
e 169 271
e 169 272
e 169 276
e 169 295
e 169 297
e 169 302
e 169 304
e 169 314
e 169 316
e 169 321
e 169 339
e 169 350
e 169 362
e 169 364
e 169 368
e 169 386
e 169 420
e 169 433
e 169 441
e 169 444
e 169 452
e 169 464
e 169 465
e 169 468
e 169 469
e 169 483
e 169 486
e 170 197
e 170 203
e 170 210
e 170 213
e 170 219
e 170 220
e 170 238
e 170 245
e 170 251
e 170 289
e 170 295
e 170 299
e 170 304
e 170 308
e 170 329
e 170 336
e 170 345
e 170 358
e 170 370
e 170 412
e 170 414
e 170 443
e 170 451
e 170 458
e 170 477
e 170 486
e 170 490
e 170 499
e 171 173
e 171 182
e 171 189
e 171 192
e 171 200
e 171 211
e 171 214
e 171 230
e 171 233
e 171 241
e 171 247
e 171 249
e 171 252
e 171 256
e 171 275
e 171 301
e 171 305
e 171 308
e 171 314
e 171 321
e 171 324
e 171 337
e 171 344
e 171 386
e 171 393
e 171 444
e 171 451
e 171 457
e 171 475
e 171 483
e 171 488
e 171 497
e 171 498
e 172 174
e 172 177
e 172 185
e 172 202
e 172 214
e 172 222
e 172 234
e 172 235
e 172 237
e 172 251
e 172 255
e 172 258
e 172 286
e 172 306
e 172 332
e 172 343
e 172 368
e 172 377
e 172 391
e 172 400
e 172 408
e 172 420
e 172 493
e 172 499
e 173 174
e 173 199
e 173 204
e 173 206
e 173 215
e 173 223
e 173 246
e 173 269
e 173 291
e 173 320
e 173 322
e 173 336
e 173 346
e 173 347
e 173 351
e 173 356
e 173 369
e 173 397
e 173 399
e 173 408
e 173 411
e 173 413
e 173 420
e 173 435
e 173 449
e 173 451
e 173 459
e 173 466
e 173 474
e 173 478
e 173 500
e 174 183
e 174 184
e 174 223
e 174 232
e 174 240
e 174 253
e 174 266
e 174 272
e 174 288
e 174 292
e 174 298
e 174 310
e 174 327
e 174 339
e 174 343
e 174 345
e 174 348
e 174 351
e 174 382
e 174 413
e 174 425
e 174 454
e 174 458
e 174 461
e 174 465
e 174 467
e 174 486
e 175 199
e 175 234
e 175 241
e 175 257
e 175 274
e 175 275
e 175 287
e 175 292
e 175 293
e 175 324
e 175 332
e 175 352
e 175 356
e 175 370
e 175 371
e 175 381
e 175 382
e 175 388
e 175 389
e 175 398
e 175 408
e 175 411
e 175 419
e 175 444
e 175 457
e 175 464
e 175 486
e 176 180
e 176 181
e 176 183
e 176 185
e 176 194
e 176 195
e 176 196
e 176 205
e 176 210
e 176 259
e 176 269
e 176 273
e 176 282
e 176 318
e 176 329
e 176 332
e 176 335
e 176 341
e 176 361
e 176 373
e 176 393
e 176 396
e 176 397
e 176 415
e 176 419
e 176 464
e 176 467
e 176 474
e 176 486
e 176 489
e 176 494
e 176 497
e 177 184
e 177 189
e 177 199
e 177 202
e 177 207
e 177 219
e 177 243
e 177 246
e 177 252
e 177 253
e 177 260
e 177 267
e 177 272
e 177 276
e 177 277
e 177 302
e 177 305
e 177 321
e 177 322
e 177 340
e 177 352
e 177 373
e 177 425
e 177 431
e 177 445
e 177 459
e 177 461
e 177 500
e 178 193
e 178 218
e 178 223
e 178 237
e 178 241
e 178 244
e 178 270
e 178 293
e 178 295
e 178 301
e 178 308
e 178 318
e 178 328
e 178 336
e 178 338
e 178 360
e 178 361
e 178 363
e 178 369
e 178 372
e 178 380
e 178 385
e 178 396
e 178 427
e 178 428
e 178 430
e 178 438
e 178 440
e 178 444
e 178 455
e 178 456
e 178 457
e 178 459
e 178 480
e 178 496
e 178 500
e 179 192
e 179 207
e 179 215
e 179 229
e 179 230
e 179 242
e 179 249
e 179 254
e 179 261
e 179 270
e 179 284
e 179 286
e 179 289
e 179 292
e 179 295
e 179 298
e 179 304
e 179 309
e 179 313
e 179 316
e 179 368
e 179 378
e 179 379
e 179 383
e 179 398
e 179 403
e 179 418
e 179 419
e 179 423
e 179 439
e 179 442
e 179 447
e 179 449
e 179 459
e 179 462
e 179 477
e 179 478
e 179 480
e 179 489
e 180 194
e 180 195
e 180 221
e 180 228
e 180 255
e 180 260
e 180 269
e 180 270
e 180 302
e 180 310
e 180 319
e 180 327
e 180 333
e 180 334
e 180 344
e 180 358
e 180 361
e 180 368
e 180 380
e 180 381
e 180 403
e 180 411
e 180 424
e 180 450
e 180 452
e 180 486
e 180 492
e 181 184
e 181 198
e 181 207
e 181 208
e 181 215
e 181 219
e 181 238
e 181 242
e 181 243
e 181 254
e 181 260
e 181 267
e 181 277
e 181 279
e 181 299
e 181 324
e 181 343
e 181 364
e 181 371
e 181 383
e 181 384
e 181 385
e 181 399
e 181 402
e 181 411
e 181 438
e 181 446
e 181 464
e 181 484
e 181 486
e 181 500
e 182 188
e 182 191
e 182 199
e 182 207
e 182 228
e 182 231
e 182 277
e 182 286
e 182 293
e 182 294
e 182 309
e 182 343
e 182 395
e 182 404
e 182 407
e 182 408
e 182 416
e 182 423
e 182 439
e 182 459
e 182 470
e 182 479
e 182 486
e 182 491
e 183 185
e 183 190
e 183 193
e 183 207
e 183 219
e 183 227
e 183 232
e 183 234
e 183 239
e 183 247
e 183 289
e 183 291
e 183 305
e 183 336
e 183 339
e 183 366
e 183 368
e 183 392
e 183 394
e 183 396
e 183 405
e 183 414
e 183 426
e 183 429
e 183 448
e 183 452
e 183 456
e 183 462
e 183 478
e 183 487
e 183 488
e 183 490
e 183 494
e 183 495
e 183 498
e 184 194
e 184 197
e 184 206
e 184 207
e 184 222
e 184 227
e 184 229
e 184 262
e 184 274
e 184 306
e 184 309
e 184 313
e 184 321
e 184 326
e 184 354
e 184 365
e 184 367
e 184 373
e 184 391
e 184 396
e 184 409
e 184 416
e 184 420
e 184 423
e 184 476
e 184 479
e 184 488
e 185 187
e 185 196
e 185 213
e 185 220
e 185 225
e 185 227
e 185 231
e 185 250
e 185 258
e 185 280
e 185 286
e 185 299
e 185 329
e 185 332
e 185 338
e 185 342
e 185 344
e 185 360
e 185 376
e 185 377
e 185 378
e 185 379
e 185 395
e 185 397
e 185 403
e 185 407
e 185 411
e 185 414
e 185 429
e 185 440
e 185 472
e 185 473
e 185 481
e 185 491
e 185 495
e 185 499
e 186 189
e 186 191
e 186 192
e 186 237
e 186 239
e 186 242
e 186 244
e 186 246
e 186 247
e 186 248
e 186 249
e 186 263
e 186 267
e 186 268
e 186 342
e 186 345
e 186 351
e 186 353
e 186 356
e 186 365
e 186 369
e 186 377
e 186 392
e 186 397
e 186 410
e 186 411
e 186 414
e 186 426
e 186 442
e 186 456
e 186 459
e 186 465
e 186 496
e 187 209
e 187 229
e 187 239
e 187 241
e 187 245
e 187 246
e 187 247
e 187 252
e 187 257
e 187 273
e 187 281
e 187 282
e 187 284
e 187 297
e 187 304
e 187 307
e 187 324
e 187 333
e 187 334
e 187 337
e 187 345
e 187 369
e 187 377
e 187 389
e 187 433
e 187 484
e 187 499
e 188 189
e 188 194
e 188 197
e 188 214
e 188 238
e 188 248
e 188 260
e 188 261
e 188 275
e 188 282
e 188 311
e 188 329
e 188 336
e 188 340
e 188 347
e 188 351
e 188 374
e 188 375
e 188 378
e 188 387
e 188 391
e 188 415
e 188 418
e 188 423
e 188 429
e 188 435
e 188 443
e 188 460
e 188 489
e 189 190
e 189 191
e 189 215
e 189 219
e 189 237
e 189 240
e 189 251
e 189 267
e 189 269
e 189 296
e 189 302
e 189 307
e 189 308
e 189 311
e 189 315
e 189 341
e 189 342
e 189 352
e 189 362
e 189 373
e 189 384
e 189 391
e 189 398
e 189 400
e 189 424
e 189 431
e 189 436
e 189 448
e 189 463
e 189 477
e 189 484
e 189 488
e 189 493
e 190 195
e 190 212
e 190 218
e 190 223
e 190 226
e 190 230
e 190 231
e 190 232
e 190 247
e 190 253
e 190 263
e 190 282
e 190 299
e 190 309
e 190 321
e 190 331
e 190 334
e 190 364
e 190 368
e 190 372
e 190 397
e 190 404
e 190 405
e 190 406
e 190 410
e 190 412
e 190 456
e 190 457
e 190 463
e 190 469
e 190 471
e 190 497
e 190 499
e 191 211
e 191 218
e 191 231
e 191 232
e 191 242
e 191 265
e 191 283
e 191 284
e 191 290
e 191 292
e 191 297
e 191 302
e 191 304
e 191 308
e 191 317
e 191 328
e 191 351
e 191 353
e 191 365
e 191 381
e 191 396
e 191 401
e 191 403
e 191 414
e 191 422
e 191 429
e 191 434
e 191 437
e 191 442
e 191 449
e 191 456
e 191 462
e 191 479
e 191 487
e 191 497
e 191 500
e 192 206
e 192 214
e 192 215
e 192 236
e 192 244
e 192 256
e 192 284
e 192 294
e 192 309
e 192 331
e 192 352
e 192 365
e 192 366
e 192 368
e 192 391
e 192 395
e 192 405
e 192 416
e 192 427
e 192 462
e 192 476
e 192 492
e 192 495
e 193 205
e 193 248
e 193 262
e 193 263
e 193 273
e 193 283
e 193 299
e 193 302
e 193 311
e 193 316
e 193 322
e 193 349
e 193 355
e 193 359
e 193 363
e 193 387
e 193 396
e 193 411
e 193 415
e 193 422
e 193 433
e 193 436
e 193 446
e 193 448
e 193 459
e 193 463
e 193 467
e 193 482
e 194 197
e 194 209
e 194 222
e 194 230
e 194 232
e 194 248
e 194 252
e 194 255
e 194 267
e 194 296
e 194 313
e 194 324
e 194 327
e 194 333
e 194 335
e 194 338
e 194 344
e 194 354
e 194 358
e 194 363
e 194 376
e 194 378
e 194 382
e 194 385
e 194 402
e 194 414
e 194 415
e 194 419
e 194 447
e 194 454
e 194 460
e 194 466
e 194 490
e 195 206
e 195 207
e 195 209
e 195 226
e 195 232
e 195 240
e 195 261
e 195 269
e 195 273
e 195 274
e 195 280
e 195 297
e 195 304
e 195 321
e 195 328
e 195 332
e 195 336
e 195 337
e 195 346
e 195 348
e 195 353
e 195 360
e 195 361
e 195 365
e 195 367
e 195 381
e 195 389
e 195 392
e 195 408
e 195 416
e 195 419
e 195 426
e 195 428
e 195 437
e 195 439
e 195 441
e 195 449
e 195 460
e 195 485
e 196 203
e 196 213
e 196 225
e 196 257
e 196 263
e 196 298
e 196 303
e 196 305
e 196 306
e 196 324
e 196 332
e 196 337
e 196 338
e 196 346
e 196 373
e 196 389
e 196 398
e 196 399
e 196 400
e 196 402
e 196 424
e 196 431
e 196 438
e 196 439
e 196 448
e 196 493
e 197 205
e 197 211
e 197 226
e 197 259
e 197 265
e 197 272
e 197 282
e 197 283
e 197 300
e 197 305
e 197 306
e 197 312
e 197 322
e 197 329
e 197 333
e 197 345
e 197 350
e 197 381
e 197 391
e 197 401
e 197 404
e 197 406
e 197 409
e 197 413
e 197 427
e 197 430
e 197 440
e 197 442
e 197 445
e 197 449
e 197 450
e 197 465
e 197 466
e 197 467
e 197 471
e 197 479
e 197 480
e 197 483
e 197 490
e 198 207
e 198 209
e 198 211
e 198 216
e 198 224
e 198 227
e 198 231
e 198 253
e 198 280
e 198 313
e 198 316
e 198 333
e 198 335
e 198 337
e 198 358
e 198 364
e 198 369
e 198 370
e 198 375
e 198 391
e 198 406
e 198 412
e 198 415
e 198 423
e 198 425
e 198 428
e 198 429
e 198 432
e 198 447
e 198 452
e 198 458
e 198 467
e 198 478
e 198 489
e 198 498
e 199 201
e 199 203
e 199 213
e 199 216
e 199 217
e 199 219
e 199 220
e 199 234
e 199 243
e 199 256
e 199 258
e 199 266
e 199 284
e 199 295
e 199 298
e 199 300
e 199 305
e 199 312
e 199 319
e 199 321
e 199 326
e 199 327
e 199 331
e 199 342
e 199 374
e 199 400
e 199 418
e 199 430
e 199 441
e 199 446
e 199 453
e 199 454
e 199 463
e 199 470
e 199 475
e 199 477
e 199 488
e 199 493
e 200 206
e 200 207
e 200 211
e 200 235
e 200 252
e 200 267
e 200 268
e 200 282
e 200 283
e 200 287
e 200 340
e 200 355
e 200 367
e 200 375
e 200 385
e 200 396
e 200 409
e 200 449
e 200 460
e 200 462
e 200 465
e 200 469
e 200 486
e 201 202
e 201 233
e 201 241
e 201 247
e 201 249
e 201 251
e 201 265
e 201 266
e 201 272
e 201 280
e 201 292
e 201 304
e 201 308
e 201 332
e 201 350
e 201 351
e 201 353
e 201 365
e 201 398
e 201 436
e 201 439
e 201 446
e 201 449
e 201 454
e 201 466
e 201 480
e 201 497
e 202 204
e 202 234
e 202 259
e 202 269
e 202 272
e 202 306
e 202 308
e 202 331
e 202 332
e 202 357
e 202 370
e 202 392
e 202 398
e 202 402
e 202 411
e 202 412
e 202 414
e 202 421
e 202 449
e 202 450
e 202 460
e 202 468
e 202 475
e 202 493
e 203 207
e 203 210
e 203 221
e 203 224
e 203 240
e 203 255
e 203 267
e 203 283
e 203 284
e 203 285
e 203 288
e 203 322
e 203 327
e 203 339
e 203 346
e 203 355
e 203 357
e 203 359
e 203 363
e 203 366
e 203 374
e 203 376
e 203 382
e 203 384
e 203 387
e 203 391
e 203 400
e 203 405
e 203 416
e 203 424
e 203 430
e 203 431
e 203 437
e 203 453
e 203 464
e 203 494
e 204 231
e 204 240
e 204 251
e 204 252
e 204 261
e 204 282
e 204 284
e 204 293
e 204 305
e 204 320
e 204 342
e 204 344
e 204 361
e 204 378
e 204 385
e 204 395
e 204 401
e 204 404
e 204 424
e 204 427
e 204 433
e 204 442
e 204 469
e 205 210
e 205 218
e 205 260
e 205 265
e 205 275
e 205 284
e 205 292
e 205 295
e 205 301
e 205 326
e 205 328
e 205 342
e 205 350
e 205 385
e 205 386
e 205 393
e 205 399
e 205 400
e 205 402
e 205 407
e 205 411
e 205 417
e 205 428
e 205 430
e 205 434
e 205 452
e 205 462
e 205 464
e 205 465
e 205 478
e 205 479
e 205 480
e 206 219
e 206 220
e 206 229
e 206 235
e 206 240
e 206 242
e 206 246
e 206 248
e 206 249
e 206 254
e 206 258
e 206 262
e 206 267
e 206 273
e 206 276
e 206 292
e 206 321
e 206 322
e 206 334
e 206 347
e 206 357
e 206 365
e 206 366
e 206 370
e 206 375
e 206 378
e 206 407
e 206 409
e 206 427
e 206 435
e 206 447
e 206 454
e 206 455
e 206 458
e 206 459
e 206 462
e 206 464
e 206 484
e 207 211
e 207 225
e 207 230
e 207 288
e 207 292
e 207 294
e 207 301
e 207 313
e 207 317
e 207 320
e 207 325
e 207 326
e 207 333
e 207 335
e 207 350
e 207 364
e 207 368
e 207 379
e 207 380
e 207 387
e 207 398
e 207 400
e 207 405
e 207 410
e 207 440
e 207 444
e 207 457
e 207 482
e 207 484
e 207 488
e 207 496
e 207 497
e 208 214
e 208 223
e 208 227
e 208 233
e 208 234
e 208 254
e 208 256
e 208 260
e 208 269
e 208 285
e 208 290
e 208 296
e 208 298
e 208 310
e 208 313
e 208 345
e 208 364
e 208 410
e 208 416
e 208 419
e 208 422
e 208 424
e 208 433
e 208 434
e 208 453
e 208 481
e 209 224
e 209 228
e 209 230
e 209 232
e 209 234
e 209 239
e 209 242
e 209 256
e 209 264
e 209 271
e 209 281
e 209 286
e 209 296
e 209 303
e 209 308
e 209 321
e 209 323
e 209 327
e 209 339
e 209 351
e 209 360
e 209 385
e 209 387
e 209 397
e 209 407
e 209 410
e 209 435
e 209 440
e 209 456
e 209 464
e 209 477
e 209 484
e 209 489
e 210 214
e 210 218
e 210 233
e 210 251
e 210 256
e 210 265
e 210 278
e 210 281
e 210 287
e 210 289
e 210 294
e 210 295
e 210 320
e 210 323
e 210 327
e 210 345
e 210 352
e 210 367
e 210 368
e 210 406
e 210 413
e 210 428
e 210 432
e 210 462
e 210 467
e 210 470
e 210 476
e 210 481
e 210 492
e 210 497
e 210 500
e 211 217
e 211 228
e 211 237
e 211 255
e 211 260
e 211 266
e 211 281
e 211 287
e 211 293
e 211 295
e 211 298
e 211 300
e 211 304
e 211 312
e 211 319
e 211 331
e 211 347
e 211 356
e 211 361
e 211 364
e 211 366
e 211 372
e 211 375
e 211 379
e 211 381
e 211 386
e 211 404
e 211 410
e 211 411
e 211 416
e 211 417
e 211 444
e 211 455
e 211 471
e 211 473
e 211 486
e 211 494
e 211 495
e 211 498
e 212 274
e 212 278
e 212 291
e 212 295
e 212 299
e 212 303
e 212 312
e 212 314
e 212 317
e 212 331
e 212 338
e 212 340
e 212 351
e 212 370
e 212 371
e 212 383
e 212 386
e 212 401
e 212 410
e 212 428
e 212 430
e 212 447
e 212 448
e 212 450
e 212 477
e 212 486
e 212 494
e 213 225
e 213 233
e 213 235
e 213 239
e 213 269
e 213 272
e 213 281
e 213 294
e 213 299
e 213 301
e 213 302
e 213 320
e 213 322
e 213 325
e 213 336
e 213 341
e 213 344
e 213 357
e 213 367
e 213 368
e 213 378
e 213 386
e 213 387
e 213 388
e 213 394
e 213 408
e 213 415
e 213 419
e 213 432
e 213 464
e 213 474
e 213 481
e 213 496
e 214 223
e 214 229
e 214 231
e 214 232
e 214 246
e 214 249
e 214 260
e 214 279
e 214 309
e 214 319
e 214 326
e 214 335
e 214 337
e 214 338
e 214 348
e 214 351
e 214 354
e 214 368
e 214 370
e 214 372
e 214 385
e 214 391
e 214 398
e 214 402
e 214 405
e 214 409
e 214 411
e 214 442
e 214 477
e 214 479
e 214 489
e 215 229
e 215 232
e 215 246
e 215 248
e 215 250
e 215 252
e 215 258
e 215 262
e 215 263
e 215 267
e 215 270
e 215 273
e 215 291
e 215 302
e 215 332
e 215 342
e 215 345
e 215 362
e 215 364
e 215 371
e 215 382
e 215 383
e 215 386
e 215 390
e 215 393
e 215 399
e 215 412
e 215 416
e 215 418
e 215 428
e 215 429
e 215 430
e 215 444
e 215 452
e 215 456
e 215 459
e 215 478
e 216 223
e 216 227
e 216 240
e 216 245
e 216 253
e 216 262
e 216 264
e 216 271
e 216 276
e 216 283
e 216 284
e 216 294
e 216 301
e 216 305
e 216 311
e 216 327
e 216 333
e 216 378
e 216 385
e 216 392
e 216 394
e 216 410
e 216 416
e 216 433
e 216 439
e 216 440
e 216 449
e 216 455
e 216 472
e 216 473
e 216 478
e 216 479
e 216 484
e 217 226
e 217 279
e 217 284
e 217 287
e 217 297
e 217 305
e 217 307
e 217 309
e 217 329
e 217 340
e 217 370
e 217 374
e 217 386
e 217 390
e 217 399
e 217 408
e 217 412
e 217 435
e 217 452
e 217 460
e 217 463
e 217 466
e 217 475
e 217 480
e 217 481
e 217 498
e 218 231
e 218 240
e 218 243
e 218 245
e 218 248
e 218 262
e 218 287
e 218 288
e 218 290
e 218 295
e 218 310
e 218 312
e 218 328
e 218 332
e 218 335
e 218 339
e 218 359
e 218 362
e 218 384
e 218 394
e 218 419
e 218 429
e 218 432
e 218 450
e 218 459
e 218 467
e 218 491
e 218 500
e 219 231
e 219 233
e 219 247
e 219 256
e 219 265
e 219 282
e 219 292
e 219 297
e 219 301
e 219 307
e 219 324
e 219 332
e 219 335
e 219 342
e 219 360
e 219 370
e 219 389
e 219 390
e 219 409
e 219 411
e 219 418
e 219 430
e 219 432
e 219 446
e 219 450
e 219 477
e 219 481
e 219 490
e 219 491
e 220 230
e 220 243
e 220 256
e 220 290
e 220 297
e 220 312
e 220 315
e 220 318
e 220 328
e 220 329
e 220 330
e 220 338
e 220 343
e 220 350
e 220 353
e 220 354
e 220 363
e 220 366
e 220 372
e 220 373
e 220 375
e 220 391
e 220 395
e 220 416
e 220 440
e 220 460
e 220 472
e 220 484
e 220 494
e 220 496
e 221 225
e 221 226
e 221 228
e 221 230
e 221 246
e 221 259
e 221 264
e 221 269
e 221 272
e 221 281
e 221 293
e 221 299
e 221 301
e 221 312
e 221 313
e 221 325
e 221 331
e 221 332
e 221 335
e 221 351
e 221 385
e 221 394
e 221 395
e 221 398
e 221 405
e 221 413
e 221 426
e 221 435
e 221 455
e 221 460
e 221 468
e 221 473
e 221 476
e 221 480
e 221 488
e 221 493
e 222 227
e 222 233
e 222 248
e 222 252
e 222 258
e 222 260
e 222 268
e 222 272
e 222 285
e 222 286
e 222 288
e 222 290
e 222 295
e 222 298
e 222 302
e 222 309
e 222 310
e 222 319
e 222 323
e 222 330
e 222 344
e 222 347
e 222 352
e 222 356
e 222 379
e 222 387
e 222 402
e 222 405
e 222 418
e 222 419
e 222 434
e 222 441
e 222 460
e 222 465
e 222 478
e 222 484
e 222 490
e 223 241
e 223 253
e 223 268
e 223 274
e 223 325
e 223 328
e 223 331
e 223 340
e 223 342
e 223 365
e 223 372
e 223 391
e 223 395
e 223 401
e 223 409
e 223 433
e 223 436
e 223 445
e 223 446
e 223 460
e 223 462
e 223 469
e 223 477
e 223 480
e 223 482
e 223 500
e 224 227
e 224 252
e 224 255
e 224 257
e 224 260
e 224 281
e 224 283
e 224 289
e 224 309
e 224 325
e 224 327
e 224 345
e 224 356
e 224 357
e 224 359
e 224 362
e 224 374
e 224 390
e 224 392
e 224 393
e 224 399
e 224 401
e 224 418
e 224 420
e 224 423
e 224 448
e 224 454
e 224 458
e 224 472
e 224 486
e 224 494
e 224 497
e 225 242
e 225 245
e 225 247
e 225 251
e 225 261
e 225 264
e 225 266
e 225 282
e 225 299
e 225 311
e 225 318
e 225 321
e 225 323
e 225 349
e 225 366
e 225 394
e 225 403
e 225 405
e 225 415
e 225 428
e 225 439
e 225 450
e 225 468
e 225 469
e 225 486
e 225 490
e 225 499
e 226 251
e 226 254
e 226 269
e 226 271
e 226 277
e 226 288
e 226 300
e 226 316
e 226 328
e 226 335
e 226 342
e 226 361
e 226 369
e 226 390
e 226 401
e 226 410
e 226 412
e 226 419
e 226 422
e 226 425
e 226 436
e 226 444
e 226 446
e 226 452
e 226 458
e 226 461
e 226 466
e 226 481
e 227 245
e 227 261
e 227 262
e 227 275
e 227 285
e 227 297
e 227 303
e 227 337
e 227 347
e 227 365
e 227 377
e 227 381
e 227 399
e 227 406
e 227 416
e 227 429
e 227 439
e 227 442
e 227 449
e 227 455
e 227 474
e 228 230
e 228 233
e 228 239
e 228 242
e 228 274
e 228 282
e 228 299
e 228 300
e 228 303
e 228 316
e 228 318
e 228 323
e 228 331
e 228 344
e 228 347
e 228 352
e 228 361
e 228 382
e 228 390
e 228 394
e 228 420
e 228 455
e 228 456
e 228 463
e 228 479
e 228 484
e 228 495
e 229 241
e 229 243
e 229 251
e 229 260
e 229 275
e 229 282
e 229 286
e 229 289
e 229 298
e 229 312
e 229 318
e 229 321
e 229 322
e 229 326
e 229 331
e 229 332
e 229 343
e 229 352
e 229 360
e 229 364
e 229 367
e 229 374
e 229 379
e 229 391
e 229 456
e 229 460
e 229 482
e 229 485
e 229 493
e 230 235
e 230 236
e 230 242
e 230 244
e 230 251
e 230 264
e 230 272
e 230 273
e 230 283
e 230 295
e 230 305
e 230 318
e 230 335
e 230 337
e 230 341
e 230 348
e 230 353
e 230 363
e 230 373
e 230 383
e 230 403
e 230 425
e 230 447
e 230 452
e 230 463
e 230 465
e 230 470
e 230 476
e 230 481
e 230 482
e 230 483
e 230 487
e 230 491
e 231 238
e 231 252
e 231 279
e 231 286
e 231 298
e 231 310
e 231 330
e 231 339
e 231 343
e 231 348
e 231 366
e 231 379
e 231 395
e 231 399
e 231 409
e 231 420
e 231 425
e 231 449
e 231 450
e 231 459
e 231 461
e 231 463
e 231 477
e 231 488
e 232 246
e 232 252
e 232 265
e 232 270
e 232 277
e 232 301
e 232 315
e 232 320
e 232 337
e 232 341
e 232 358
e 232 398
e 232 400
e 232 403
e 232 409
e 232 454
e 232 466
e 232 484
e 232 488
e 233 243
e 233 265
e 233 273
e 233 311
e 233 322
e 233 323
e 233 334
e 233 349
e 233 350
e 233 355
e 233 357
e 233 368
e 233 375
e 233 385
e 233 402
e 233 408
e 233 412
e 233 414
e 233 445
e 233 481
e 234 242
e 234 259
e 234 265
e 234 283
e 234 295
e 234 300
e 234 301
e 234 306
e 234 310
e 234 318
e 234 320
e 234 328
e 234 349
e 234 352
e 234 376
e 234 392
e 234 401
e 234 405
e 234 439
e 234 442
e 234 454
e 234 460
e 234 462
e 234 470
e 234 473
e 234 480
e 234 481
e 234 484
e 234 500
e 235 237
e 235 250
e 235 271
e 235 281
e 235 292
e 235 294
e 235 308
e 235 315
e 235 320
e 235 327
e 235 338
e 235 342
e 235 358
e 235 382
e 235 393
e 235 397
e 235 398
e 235 422
e 235 432
e 235 435
e 235 442
e 235 447
e 235 452
e 235 464
e 235 465
e 235 466
e 235 467
e 235 474
e 235 480
e 235 492
e 236 240
e 236 242
e 236 256
e 236 267
e 236 274
e 236 276
e 236 281
e 236 285
e 236 289
e 236 290
e 236 292
e 236 298
e 236 301
e 236 320
e 236 322
e 236 328
e 236 336
e 236 338
e 236 342
e 236 359
e 236 372
e 236 374
e 236 379
e 236 422
e 236 425
e 236 429
e 236 439
e 236 454
e 236 480
e 236 486
e 236 493
e 236 496
e 237 256
e 237 257
e 237 261
e 237 263
e 237 267
e 237 272
e 237 278
e 237 284
e 237 285
e 237 307
e 237 311
e 237 317
e 237 318
e 237 325
e 237 347
e 237 371
e 237 382
e 237 391
e 237 395
e 237 402
e 237 404
e 237 408
e 237 417
e 237 423
e 237 433
e 237 438
e 237 473
e 237 480
e 237 484
e 237 496
e 238 245
e 238 272
e 238 275
e 238 280
e 238 300
e 238 309
e 238 326
e 238 335
e 238 350
e 238 360
e 238 379
e 238 380
e 238 382
e 238 385
e 238 406
e 238 408
e 238 415
e 238 437
e 238 439
e 238 443
e 238 446
e 238 473
e 238 475
e 238 482
e 238 485
e 239 243
e 239 268
e 239 271
e 239 287
e 239 288
e 239 310
e 239 317
e 239 321
e 239 334
e 239 353
e 239 354
e 239 374
e 239 387
e 239 388
e 239 389
e 239 396
e 239 398
e 239 407
e 239 411
e 239 446
e 239 451
e 239 460
e 239 462
e 239 464
e 239 466
e 239 487
e 240 244
e 240 245
e 240 256
e 240 258
e 240 271
e 240 279
e 240 290
e 240 296
e 240 305
e 240 308
e 240 321
e 240 329
e 240 331
e 240 348
e 240 352
e 240 359
e 240 365
e 240 367
e 240 379
e 240 385
e 240 394
e 240 424
e 240 448
e 240 460
e 240 465
e 240 479
e 240 486
e 240 491
e 241 254
e 241 274
e 241 288
e 241 293
e 241 310
e 241 316
e 241 325
e 241 327
e 241 328
e 241 333
e 241 351
e 241 363
e 241 366
e 241 404
e 241 423
e 241 425
e 241 432
e 241 433
e 241 466
e 241 473
e 241 479
e 241 480
e 241 494
e 241 500
e 242 249
e 242 253
e 242 283
e 242 285
e 242 293
e 242 296
e 242 298
e 242 315
e 242 342
e 242 368
e 242 378
e 242 381
e 242 389
e 242 403
e 242 418
e 242 425
e 242 439
e 242 445
e 242 496
e 242 498
e 243 264
e 243 274
e 243 285
e 243 289
e 243 290
e 243 324
e 243 332
e 243 341
e 243 368
e 243 370
e 243 373
e 243 380
e 243 393
e 243 405
e 243 408
e 243 425
e 243 441
e 243 448
e 243 464
e 243 469
e 243 486
e 243 493
e 243 495
e 244 258
e 244 263
e 244 266
e 244 292
e 244 298
e 244 324
e 244 335
e 244 353
e 244 354
e 244 361
e 244 364
e 244 365
e 244 395
e 244 396
e 244 401
e 244 444
e 244 447
e 244 448
e 244 455
e 244 457
e 244 460
e 244 474
e 244 483
e 245 253
e 245 257
e 245 265
e 245 268
e 245 274
e 245 278
e 245 284
e 245 298
e 245 299
e 245 315
e 245 317
e 245 320
e 245 331
e 245 337
e 245 347
e 245 358
e 245 360
e 245 383
e 245 397
e 245 401
e 245 403
e 245 432
e 245 434
e 245 438
e 245 452
e 245 471
e 245 475
e 245 479
e 245 482
e 245 487
e 245 495
e 246 250
e 246 260
e 246 272
e 246 277
e 246 287
e 246 295
e 246 303
e 246 308
e 246 311
e 246 314
e 246 323
e 246 325
e 246 333
e 246 340
e 246 360
e 246 363
e 246 378
e 246 380
e 246 384
e 246 426
e 246 451
e 246 459
e 246 494
e 247 248
e 247 252
e 247 258
e 247 272
e 247 274
e 247 286
e 247 299
e 247 305
e 247 327
e 247 337
e 247 340
e 247 341
e 247 350
e 247 356
e 247 357
e 247 358
e 247 368
e 247 371
e 247 383
e 247 384
e 247 387
e 247 388
e 247 401
e 247 412
e 247 426
e 247 452
e 247 456
e 247 467
e 247 474
e 247 477
e 247 493
e 248 277
e 248 286
e 248 300
e 248 307
e 248 312
e 248 357
e 248 395
e 248 401
e 248 404
e 248 407
e 248 418
e 248 437
e 248 472
e 248 474
e 248 478
e 248 492
e 248 497
e 248 498
e 249 256
e 249 268
e 249 290
e 249 293
e 249 303
e 249 319
e 249 323
e 249 325
e 249 334
e 249 343
e 249 344
e 249 346
e 249 370
e 249 387
e 249 399
e 249 400
e 249 417
e 249 438
e 249 444
e 249 450
e 249 454
e 249 456
e 249 465
e 249 467
e 249 479
e 249 485
e 250 261
e 250 269
e 250 271
e 250 277
e 250 297
e 250 300
e 250 306
e 250 312
e 250 318
e 250 323
e 250 325
e 250 327
e 250 334
e 250 340
e 250 341
e 250 352
e 250 353
e 250 356
e 250 365
e 250 412
e 250 436
e 250 442
e 250 446
e 250 453
e 250 480
e 250 485
e 251 261
e 251 273
e 251 279
e 251 282
e 251 283
e 251 286
e 251 289
e 251 295
e 251 302
e 251 305
e 251 321
e 251 332
e 251 338
e 251 339
e 251 343
e 251 358
e 251 372
e 251 380
e 251 382
e 251 389
e 251 390
e 251 404
e 251 407
e 251 408
e 251 411
e 251 417
e 251 423
e 251 442
e 251 459
e 251 462
e 251 472
e 251 474
e 251 477
e 251 478
e 251 487
e 251 490
e 252 272
e 252 274
e 252 286
e 252 297
e 252 299
e 252 304
e 252 307
e 252 324
e 252 335
e 252 355
e 252 361
e 252 377
e 252 386
e 252 393
e 252 401
e 252 408
e 252 411
e 252 427
e 252 457
e 252 460
e 252 469
e 252 470
e 252 477
e 252 488
e 252 494
e 253 262
e 253 271
e 253 280
e 253 281
e 253 299
e 253 307
e 253 314
e 253 326
e 253 330
e 253 335
e 253 338
e 253 346
e 253 349
e 253 351
e 253 370
e 253 374
e 253 399
e 253 400
e 253 419
e 253 422
e 253 434
e 253 435
e 253 443
e 253 474
e 253 483
e 253 489
e 253 493
e 254 283
e 254 296
e 254 298
e 254 309
e 254 314
e 254 317
e 254 323
e 254 324
e 254 325
e 254 327
e 254 330
e 254 342
e 254 344
e 254 359
e 254 364
e 254 396
e 254 420
e 254 442
e 254 457
e 254 471
e 255 256
e 255 269
e 255 298
e 255 304
e 255 305
e 255 320
e 255 326
e 255 330
e 255 334
e 255 336
e 255 341
e 255 357
e 255 366
e 255 376
e 255 377
e 255 386
e 255 388
e 255 391
e 255 395
e 255 401
e 255 409
e 255 420
e 255 430
e 255 436
e 255 447
e 255 457
e 255 475
e 255 484
e 255 499
e 256 260
e 256 279
e 256 290
e 256 339
e 256 344
e 256 345
e 256 346
e 256 366
e 256 374
e 256 387
e 256 394
e 256 405
e 256 419
e 256 439
e 256 464
e 256 475
e 256 480
e 256 481
e 256 487
e 256 498
e 257 273
e 257 276
e 257 277
e 257 286
e 257 287
e 257 291
e 257 300
e 257 319
e 257 332
e 257 341
e 257 353
e 257 357
e 257 376
e 257 386
e 257 400
e 257 402
e 257 404
e 257 412
e 257 415
e 257 442
e 257 454
e 257 459
e 258 263
e 258 275
e 258 289
e 258 303
e 258 312
e 258 321
e 258 325
e 258 327
e 258 332
e 258 341
e 258 346
e 258 352
e 258 353
e 258 363
e 258 385
e 258 388
e 258 411
e 258 418
e 258 419
e 258 431
e 258 432
e 258 441
e 258 458
e 258 467
e 258 481
e 258 498
e 258 499
e 259 266
e 259 268
e 259 271
e 259 272
e 259 275
e 259 321
e 259 330
e 259 347
e 259 350
e 259 364
e 259 383
e 259 385
e 259 395
e 259 402
e 259 408
e 259 424
e 259 430
e 259 432
e 259 443
e 259 445
e 259 447
e 259 448
e 259 464
e 259 495
e 260 261
e 260 263
e 260 275
e 260 279
e 260 286
e 260 315
e 260 316
e 260 317
e 260 324
e 260 330
e 260 361
e 260 367
e 260 378
e 260 380
e 260 389
e 260 401
e 260 416
e 260 422
e 260 423
e 260 427
e 260 440
e 260 442
e 260 465
e 260 466
e 260 468
e 260 472
e 260 476
e 260 500
e 261 268
e 261 271
e 261 272
e 261 278
e 261 283
e 261 288
e 261 291
e 261 299
e 261 307
e 261 325
e 261 351
e 261 358
e 261 364
e 261 399
e 261 400
e 261 416
e 261 423
e 261 428
e 261 461
e 261 464
e 261 467
e 261 471
e 261 494
e 262 266
e 262 277
e 262 281
e 262 285
e 262 310
e 262 345
e 262 350
e 262 356
e 262 386
e 262 388
e 262 403
e 262 404
e 262 416
e 262 426
e 262 436
e 262 441
e 262 447
e 262 452
e 262 455
e 262 462
e 262 478
e 262 487
e 262 495
e 263 270
e 263 276
e 263 277
e 263 286
e 263 293
e 263 303
e 263 321
e 263 327
e 263 331
e 263 332
e 263 335
e 263 354
e 263 371
e 263 373
e 263 381
e 263 382
e 263 388
e 263 395
e 263 405
e 263 407
e 263 411
e 263 426
e 263 442
e 263 483
e 263 486
e 264 266
e 264 267
e 264 277
e 264 290
e 264 327
e 264 340
e 264 379
e 264 386
e 264 391
e 264 410
e 264 424
e 264 432
e 264 435
e 264 471
e 264 487
e 264 490
e 264 492
e 265 275
e 265 294
e 265 307
e 265 339
e 265 356
e 265 364
e 265 372
e 265 386
e 265 390
e 265 391
e 265 409
e 265 432
e 265 439
e 265 440
e 265 476
e 265 489
e 265 492
e 265 498
e 265 499
e 265 500
e 266 269
e 266 273
e 266 287
e 266 293
e 266 295
e 266 296
e 266 297
e 266 299
e 266 301
e 266 303
e 266 306
e 266 308
e 266 316
e 266 325
e 266 330
e 266 355
e 266 357
e 266 363
e 266 371
e 266 372
e 266 379
e 266 410
e 266 420
e 266 426
e 266 434
e 266 438
e 266 443
e 266 451
e 266 452
e 266 470
e 266 476
e 266 485
e 266 489
e 266 492
e 267 275
e 267 277
e 267 279
e 267 280
e 267 286
e 267 287
e 267 295
e 267 304
e 267 311
e 267 316
e 267 321
e 267 327
e 267 331
e 267 338
e 267 348
e 267 380
e 267 390
e 267 401
e 267 425
e 267 434
e 267 461
e 267 467
e 267 474
e 267 475
e 267 484
e 268 277
e 268 285
e 268 297
e 268 305
e 268 322
e 268 338
e 268 340
e 268 348
e 268 354
e 268 357
e 268 358
e 268 361
e 268 367
e 268 370
e 268 376
e 268 410
e 268 435
e 268 438
e 268 458
e 268 465
e 268 472
e 268 476
e 268 479
e 268 480
e 268 497
e 269 270
e 269 274
e 269 287
e 269 291
e 269 292
e 269 293
e 269 299
e 269 319
e 269 328
e 269 329
e 269 345
e 269 371
e 269 398
e 269 402
e 269 416
e 269 422
e 269 423
e 269 460
e 269 466
e 269 480
e 270 274
e 270 284
e 270 293
e 270 294
e 270 307
e 270 310
e 270 311
e 270 346
e 270 356
e 270 365
e 270 371
e 270 372
e 270 390
e 270 394
e 270 397
e 270 406
e 270 408
e 270 409
e 270 411
e 270 422
e 270 430
e 270 438
e 270 442
e 270 455
e 270 459
e 270 465
e 270 466
e 270 468
e 270 475
e 270 485
e 270 490
e 270 494
e 271 275
e 271 278
e 271 280
e 271 296
e 271 299
e 271 306
e 271 310
e 271 311
e 271 316
e 271 340
e 271 343
e 271 350
e 271 361
e 271 372
e 271 384
e 271 391
e 271 393
e 271 416
e 271 422
e 271 423
e 271 427
e 271 437
e 271 439
e 271 443
e 271 462
e 271 470
e 271 484
e 271 498
e 271 500
e 272 275
e 272 295
e 272 302
e 272 324
e 272 327
e 272 329
e 272 331
e 272 340
e 272 346
e 272 352
e 272 357
e 272 361
e 272 379
e 272 383
e 272 390
e 272 401
e 272 404
e 272 406
e 272 444
e 272 449
e 272 450
e 272 457
e 272 461
e 272 464
e 272 499
e 273 287
e 273 291
e 273 302
e 273 327
e 273 333
e 273 344
e 273 371
e 273 383
e 273 384
e 273 391
e 273 396
e 273 406
e 273 410
e 273 414
e 273 423
e 273 425
e 273 439
e 273 457
e 273 465
e 273 466
e 273 477
e 273 478
e 273 484
e 273 486
e 273 487
e 274 302
e 274 304
e 274 309
e 274 315
e 274 316
e 274 330
e 274 336
e 274 340
e 274 342
e 274 346
e 274 348
e 274 363
e 274 369
e 274 377
e 274 387
e 274 388
e 274 405
e 274 408
e 274 418
e 274 438
e 274 449
e 274 485
e 274 492
e 274 496
e 275 276
e 275 284
e 275 286
e 275 288
e 275 294
e 275 307
e 275 309
e 275 347
e 275 349
e 275 354
e 275 356
e 275 358
e 275 394
e 275 419
e 275 426
e 275 427
e 275 429
e 275 438
e 275 473
e 276 281
e 276 299
e 276 306
e 276 312
e 276 314
e 276 323
e 276 324
e 276 336
e 276 343
e 276 357
e 276 362
e 276 375
e 276 379
e 276 380
e 276 382
e 276 400
e 276 405
e 276 418
e 276 420
e 276 422
e 276 430
e 276 431
e 276 436
e 276 460
e 276 462
e 276 474
e 276 500
e 277 279
e 277 287
e 277 302
e 277 303
e 277 307
e 277 311
e 277 329
e 277 330
e 277 332
e 277 344
e 277 357
e 277 366
e 277 387
e 277 431
e 277 446
e 277 488
e 277 489
e 277 497
e 277 499
e 278 280
e 278 286
e 278 295
e 278 316
e 278 317
e 278 351
e 278 352
e 278 353
e 278 359
e 278 365
e 278 366
e 278 372
e 278 375
e 278 381
e 278 382
e 278 393
e 278 402
e 278 403
e 278 416
e 278 423
e 278 425
e 278 429
e 278 430
e 278 442
e 278 443
e 278 448
e 278 466
e 278 470
e 278 477
e 278 492
e 278 495
e 279 284
e 279 299
e 279 307
e 279 349
e 279 350
e 279 354
e 279 380
e 279 406
e 279 419
e 279 431
e 279 449
e 279 458
e 279 461
e 279 463
e 279 468
e 279 469
e 279 474
e 279 477
e 279 489
e 280 292
e 280 294
e 280 295
e 280 300
e 280 310
e 280 322
e 280 337
e 280 340
e 280 342
e 280 349
e 280 391
e 280 395
e 280 398
e 280 404
e 280 410
e 280 412
e 280 417
e 280 440
e 280 441
e 280 449
e 280 459
e 280 462
e 280 464
e 280 466
e 280 481
e 280 492
e 281 287
e 281 290
e 281 291
e 281 294
e 281 299
e 281 309
e 281 322
e 281 329
e 281 346
e 281 349
e 281 356
e 281 374
e 281 383
e 281 388
e 281 398
e 281 401
e 281 404
e 281 425
e 281 433
e 281 446
e 281 448
e 281 453
e 281 457
e 281 477
e 281 491
e 281 494
e 282 301
e 282 305
e 282 314
e 282 324
e 282 330
e 282 338
e 282 358
e 282 363
e 282 392
e 282 402
e 282 412
e 282 420
e 282 440
e 282 442
e 282 448
e 282 452
e 282 484
e 283 286
e 283 322
e 283 329
e 283 339
e 283 358
e 283 359
e 283 387
e 283 395
e 283 398
e 283 401
e 283 423
e 283 442
e 283 444
e 283 445
e 283 462
e 283 482
e 284 290
e 284 299
e 284 304
e 284 311
e 284 324
e 284 352
e 284 360
e 284 361
e 284 382
e 284 408
e 284 416
e 284 420
e 284 438
e 284 441
e 284 443
e 284 448
e 284 458
e 284 485
e 284 486
e 284 495
e 284 496
e 285 295
e 285 296
e 285 302
e 285 341
e 285 354
e 285 382
e 285 390
e 285 423
e 285 429
e 285 438
e 285 456
e 285 464
e 285 480
e 285 490
e 285 493
e 285 495
e 286 292
e 286 294
e 286 298
e 286 311
e 286 316
e 286 324
e 286 325
e 286 327
e 286 330
e 286 335
e 286 359
e 286 373
e 286 383
e 286 384
e 286 406
e 286 412
e 286 414
e 286 416
e 286 422
e 286 434
e 286 437
e 286 441
e 286 445
e 286 453
e 286 466
e 286 472
e 286 485
e 286 486
e 286 492
e 287 291
e 287 300
e 287 306
e 287 317
e 287 318
e 287 324
e 287 326
e 287 348
e 287 353
e 287 355
e 287 356
e 287 360
e 287 362
e 287 376
e 287 384
e 287 405
e 287 407
e 287 408
e 287 410
e 287 448
e 287 451
e 287 454
e 287 456
e 287 458
e 287 459
e 287 466
e 287 469
e 287 476
e 287 495
e 288 307
e 288 315
e 288 323
e 288 328
e 288 339
e 288 385
e 288 415
e 288 419
e 288 426
e 288 429
e 288 453
e 288 464
e 288 468
e 288 483
e 288 500
e 289 316
e 289 344
e 289 347
e 289 354
e 289 373
e 289 386
e 289 387
e 289 390
e 289 391
e 289 393
e 289 395
e 289 409
e 289 416
e 289 418
e 289 425
e 289 431
e 289 457
e 289 464
e 289 487
e 290 296
e 290 299
e 290 346
e 290 376
e 290 413
e 290 431
e 290 436
e 290 438
e 290 459
e 290 466
e 290 470
e 290 476
e 290 482
e 291 294
e 291 304
e 291 305
e 291 319
e 291 322
e 291 330
e 291 352
e 291 355
e 291 357
e 291 360
e 291 377
e 291 386
e 291 393
e 291 399
e 291 403
e 291 406
e 291 413
e 291 418
e 291 451
e 291 465
e 291 470
e 291 475
e 291 478
e 291 481
e 292 294
e 292 297
e 292 327
e 292 332
e 292 344
e 292 345
e 292 356
e 292 380
e 292 384
e 292 416
e 292 419
e 292 433
e 292 435
e 292 437
e 292 449
e 292 453
e 292 460
e 292 472
e 292 479
e 292 482
e 293 300
e 293 305
e 293 319
e 293 326
e 293 339
e 293 364
e 293 370
e 293 372
e 293 374
e 293 406
e 293 414
e 293 417
e 293 423
e 293 448
e 293 460
e 293 466
e 293 471
e 293 472
e 293 480
e 293 482
e 293 490
e 293 496
e 293 499
e 294 304
e 294 305
e 294 313
e 294 323
e 294 338
e 294 350
e 294 358
e 294 376
e 294 402
e 294 411
e 294 413
e 294 414
e 294 420
e 294 432
e 294 440
e 294 450
e 294 458
e 294 489
e 295 303
e 295 306
e 295 307
e 295 315
e 295 316
e 295 333
e 295 335
e 295 347
e 295 361
e 295 365
e 295 369
e 295 372
e 295 399
e 295 405
e 295 424
e 295 439
e 295 451
e 295 452
e 295 455
e 295 475
e 295 477
e 295 498
e 296 300
e 296 326
e 296 330
e 296 335
e 296 343
e 296 354
e 296 382
e 296 383
e 296 396
e 296 409
e 296 418
e 296 439
e 296 445
e 296 446
e 296 460
e 296 489
e 296 491
e 296 498
e 297 299
e 297 318
e 297 327
e 297 332
e 297 347
e 297 349
e 297 364
e 297 365
e 297 368
e 297 372
e 297 380
e 297 381
e 297 387
e 297 394
e 297 397
e 297 408
e 297 425
e 297 426
e 297 435
e 297 446
e 297 478
e 297 479
e 297 480
e 297 490
e 297 491
e 297 500
e 298 302
e 298 313
e 298 321
e 298 342
e 298 344
e 298 366
e 298 369
e 298 380
e 298 381
e 298 394
e 298 395
e 298 409
e 298 410
e 298 474
e 298 478
e 298 492
e 298 494
e 298 497
e 298 500
e 299 318
e 299 319
e 299 330
e 299 340
e 299 362
e 299 364
e 299 369
e 299 373
e 299 374
e 299 387
e 299 408
e 299 431
e 299 442
e 299 445
e 299 452
e 299 456
e 299 465
e 299 472
e 299 475
e 299 490
e 299 491
e 299 492
e 299 496
e 300 306
e 300 320
e 300 334
e 300 338
e 300 353
e 300 370
e 300 383
e 300 393
e 300 405
e 300 409
e 300 417
e 300 419
e 300 427
e 300 437
e 300 442
e 300 443
e 300 455
e 300 490
e 300 493
e 300 500
e 301 307
e 301 314
e 301 316
e 301 332
e 301 341
e 301 344
e 301 348
e 301 381
e 301 387
e 301 405
e 301 414
e 301 419
e 301 420
e 301 428
e 301 430
e 301 431
e 301 442
e 301 449
e 301 452
e 301 465
e 301 467
e 301 470
e 301 473
e 301 474
e 301 483
e 301 492
e 302 314
e 302 318
e 302 324
e 302 326
e 302 339
e 302 342
e 302 352
e 302 379
e 302 394
e 302 420
e 302 421
e 302 430
e 302 445
e 302 467
e 302 470
e 302 474
e 302 478
e 302 489
e 302 495
e 302 500
e 303 305
e 303 306
e 303 310
e 303 323
e 303 333
e 303 343
e 303 349
e 303 357
e 303 358
e 303 359
e 303 389
e 303 405
e 303 417
e 303 430
e 303 437
e 303 441
e 303 443
e 303 448
e 303 451
e 303 455
e 303 458
e 303 459
e 303 473
e 303 475
e 303 479
e 303 493
e 303 496
e 304 311
e 304 314
e 304 326
e 304 350
e 304 358
e 304 371
e 304 381
e 304 399
e 304 411
e 304 412
e 304 418
e 304 420
e 304 430
e 304 434
e 304 435
e 304 467
e 304 468
e 304 471
e 304 472
e 304 484
e 304 486
e 304 494
e 304 500
e 305 306
e 305 334
e 305 361
e 305 364
e 305 389
e 305 425
e 305 427
e 305 442
e 305 445
e 305 479
e 305 482
e 305 483
e 306 333
e 306 339
e 306 361
e 306 377
e 306 378
e 306 384
e 306 403
e 306 404
e 306 413
e 306 434
e 306 439
e 306 459
e 306 470
e 307 322
e 307 323
e 307 325
e 307 326
e 307 327
e 307 336
e 307 360
e 307 361
e 307 365
e 307 369
e 307 376
e 307 382
e 307 462
e 307 490
e 307 493
e 308 310
e 308 311
e 308 312
e 308 316
e 308 320
e 308 339
e 308 370
e 308 387
e 308 412
e 308 413
e 308 415
e 308 424
e 308 426
e 308 427
e 308 433
e 308 438
e 308 447
e 308 453
e 308 472
e 308 474
e 308 476
e 308 488
e 309 315
e 309 317
e 309 329
e 309 332
e 309 349
e 309 359
e 309 367
e 309 375
e 309 400
e 309 404
e 309 413
e 309 425
e 309 452
e 309 459
e 309 464
e 309 469
e 309 472
e 309 498
e 310 316
e 310 318
e 310 325
e 310 334
e 310 343
e 310 353
e 310 357
e 310 361
e 310 364
e 310 371
e 310 376
e 310 393
e 310 416
e 310 437
e 310 451
e 310 453
e 310 460
e 311 315
e 311 322
e 311 342
e 311 350
e 311 372
e 311 381
e 311 383
e 311 384
e 311 395
e 311 398
e 311 404
e 311 406
e 311 422
e 311 425
e 311 449
e 311 462
e 311 465
e 311 479
e 311 491
e 311 495
e 312 321
e 312 323
e 312 329
e 312 331
e 312 336
e 312 341
e 312 350
e 312 354
e 312 355
e 312 374
e 312 381
e 312 389
e 312 423
e 312 435
e 312 439
e 312 464
e 312 472
e 312 485
e 312 498
e 313 333
e 313 340
e 313 351
e 313 353
e 313 361
e 313 384
e 313 423
e 313 450
e 313 453
e 313 458
e 313 473
e 313 487
e 314 316
e 314 345
e 314 347
e 314 368
e 314 371
e 314 376
e 314 377
e 314 393
e 314 404
e 314 409
e 314 422
e 314 424
e 314 425
e 314 436
e 314 440
e 314 454
e 314 458
e 314 475
e 314 476
e 314 487
e 314 489
e 314 497
e 315 356
e 315 358
e 315 362
e 315 363
e 315 364
e 315 370
e 315 382
e 315 388
e 315 399
e 315 476
e 315 484
e 315 486
e 315 487
e 315 493
e 315 497
e 316 324
e 316 327
e 316 332
e 316 338
e 316 347
e 316 377
e 316 381
e 316 399
e 316 407
e 316 423
e 316 435
e 316 445
e 316 452
e 316 458
e 316 461
e 316 464
e 316 467
e 316 499
e 317 321
e 317 326
e 317 344
e 317 347
e 317 354
e 317 356
e 317 366
e 317 367
e 317 370
e 317 391
e 317 395
e 317 398
e 317 408
e 317 415
e 317 424
e 317 440
e 317 462
e 317 476
e 317 489
e 317 498
e 317 500
e 318 331
e 318 337
e 318 350
e 318 364
e 318 371
e 318 373
e 318 377
e 318 381
e 318 382
e 318 392
e 318 402
e 318 416
e 318 417
e 318 434
e 318 453
e 318 456
e 318 500
e 319 322
e 319 328
e 319 333
e 319 336
e 319 341
e 319 348
e 319 351
e 319 353
e 319 357
e 319 358
e 319 365
e 319 368
e 319 371
e 319 385
e 319 399
e 319 405
e 319 414
e 319 416
e 319 440
e 319 450
e 319 461
e 319 471
e 319 475
e 319 477
e 319 487
e 319 498
e 320 336
e 320 348
e 320 373
e 320 374
e 320 375
e 320 385
e 320 407
e 320 412
e 320 417
e 320 440
e 320 453
e 320 459
e 320 494
e 320 498
e 321 335
e 321 340
e 321 345
e 321 354
e 321 358
e 321 364
e 321 365
e 321 372
e 321 397
e 321 406
e 321 427
e 321 432
e 321 440
e 321 455
e 321 457
e 321 472
e 321 482
e 321 497
e 322 332
e 322 334
e 322 346
e 322 350
e 322 377
e 322 383
e 322 395
e 322 401
e 322 411
e 322 414
e 322 429
e 322 434
e 322 435
e 322 442
e 322 464
e 322 476
e 322 483
e 322 500
e 323 325
e 323 327
e 323 335
e 323 338
e 323 344
e 323 347
e 323 354
e 323 356
e 323 362
e 323 373
e 323 400
e 323 405
e 323 407
e 323 408
e 323 444
e 323 490
e 324 336
e 324 338
e 324 341
e 324 342
e 324 343
e 324 351
e 324 358
e 324 362
e 324 364
e 324 372
e 324 375
e 324 380
e 324 390
e 324 445
e 324 453
e 324 455
e 324 487
e 324 488
e 325 329
e 325 339
e 325 341
e 325 352
e 325 353
e 325 365
e 325 371
e 325 392
e 325 396
e 325 411
e 325 423
e 325 427
e 325 461
e 325 465
e 325 486
e 325 488
e 326 346
e 326 359
e 326 366
e 326 384
e 326 401
e 326 424
e 326 446
e 326 458
e 326 478
e 326 489
e 326 490
e 326 495
e 326 497
e 327 333
e 327 339
e 327 346
e 327 348
e 327 350
e 327 352
e 327 359
e 327 385
e 327 388
e 327 390
e 327 393
e 327 399
e 327 422
e 327 430
e 327 436
e 327 440
e 327 451
e 327 476
e 327 480
e 327 484
e 327 488
e 328 331
e 328 364
e 328 374
e 328 379
e 328 398
e 328 412
e 328 413
e 328 417
e 328 436
e 328 449
e 328 450
e 328 463
e 328 498
e 329 335
e 329 336
e 329 365
e 329 369
e 329 391
e 329 407
e 329 409
e 329 421
e 329 430
e 329 432
e 329 435
e 329 448
e 329 450
e 329 464
e 329 478
e 329 479
e 329 487
e 329 494
e 330 336
e 330 370
e 330 373
e 330 379
e 330 384
e 330 394
e 330 396
e 330 402
e 330 412
e 330 420
e 330 421
e 330 430
e 330 431
e 330 453
e 330 460
e 330 463
e 330 469
e 330 490
e 331 334
e 331 363
e 331 368
e 331 373
e 331 376
e 331 407
e 331 423
e 331 425
e 331 447
e 331 459
e 331 462
e 331 468
e 331 474
e 331 477
e 331 489
e 332 333
e 332 355
e 332 368
e 332 380
e 332 384
e 332 388
e 332 396
e 332 402
e 332 405
e 332 406
e 332 428
e 332 431
e 332 434
e 332 441
e 332 444
e 332 449
e 332 452
e 332 453
e 332 457
e 332 458
e 332 466
e 332 481
e 332 482
e 332 484
e 332 492
e 333 335
e 333 342
e 333 355
e 333 356
e 333 371
e 333 417
e 333 421
e 333 424
e 333 433
e 333 442
e 333 444
e 333 446
e 333 452
e 333 474
e 333 479
e 333 485
e 333 491
e 334 359
e 334 370
e 334 380
e 334 394
e 334 395
e 334 409
e 334 410
e 334 412
e 334 428
e 334 431
e 334 432
e 334 437
e 334 450
e 334 460
e 334 480
e 334 489
e 334 493
e 334 500
e 335 340
e 335 341
e 335 350
e 335 353
e 335 382
e 335 395
e 335 397
e 335 413
e 335 415
e 335 419
e 335 421
e 335 439
e 335 442
e 335 448
e 335 451
e 335 470
e 336 351
e 336 357
e 336 364
e 336 372
e 336 376
e 336 383
e 336 384
e 336 403
e 336 420
e 336 422
e 336 427
e 336 437
e 336 440
e 336 445
e 336 460
e 336 468
e 336 479
e 336 491
e 337 341
e 337 365
e 337 372
e 337 374
e 337 382
e 337 394
e 337 406
e 337 420
e 337 428
e 337 435
e 337 439
e 337 440
e 337 458
e 337 464
e 337 472
e 337 484
e 338 364
e 338 371
e 338 378
e 338 387
e 338 409
e 338 414
e 338 415
e 338 436
e 338 438
e 338 442
e 338 450
e 338 460
e 338 469
e 338 474
e 338 482
e 338 487
e 338 496
e 339 355
e 339 394
e 339 399
e 339 408
e 339 421
e 339 456
e 339 458
e 339 462
e 339 464
e 339 465
e 339 466
e 339 468
e 339 481
e 340 355
e 340 364
e 340 367
e 340 370
e 340 400
e 340 411
e 340 414
e 340 460
e 340 461
e 340 474
e 340 483
e 340 495
e 341 343
e 341 357
e 341 369
e 341 376
e 341 388
e 341 413
e 341 416
e 341 423
e 341 424
e 341 431
e 341 434
e 341 441
e 341 454
e 341 478
e 341 499
e 342 349
e 342 353
e 342 420
e 342 421
e 342 452
e 342 453
e 342 465
e 342 467
e 342 469
e 342 492
e 343 344
e 343 352
e 343 359
e 343 379
e 343 390
e 343 395
e 343 403
e 343 407
e 343 409
e 343 412
e 343 427
e 343 448
e 343 470
e 343 471
e 343 472
e 343 475
e 343 487
e 343 493
e 344 362
e 344 367
e 344 404
e 344 405
e 344 409
e 344 414
e 344 415
e 344 424
e 344 432
e 344 458
e 344 461
e 344 466
e 344 470
e 344 478
e 344 486
e 344 497
e 345 377
e 345 394
e 345 419
e 345 421
e 345 423
e 345 427
e 345 429
e 345 433
e 345 438
e 345 447
e 345 455
e 345 486
e 345 500
e 346 353
e 346 356
e 346 358
e 346 364
e 346 372
e 346 377
e 346 389
e 346 403
e 346 405
e 346 413
e 346 429
e 346 432
e 346 434
e 346 435
e 346 450
e 346 453
e 346 454
e 346 465
e 346 496
e 346 498
e 347 348
e 347 376
e 347 391
e 347 408
e 347 423
e 347 428
e 347 429
e 347 442
e 347 445
e 347 464
e 347 465
e 347 466
e 347 482
e 347 483
e 347 487
e 347 491
e 347 495
e 347 496
e 348 350
e 348 352
e 348 355
e 348 368
e 348 373
e 348 374
e 348 384
e 348 385
e 348 387
e 348 403
e 348 407
e 348 424
e 348 432
e 348 439
e 348 440
e 348 445
e 348 482
e 349 350
e 349 366
e 349 368
e 349 376
e 349 382
e 349 387
e 349 388
e 349 399
e 349 417
e 349 427
e 349 431
e 349 444
e 349 445
e 349 447
e 349 465
e 349 472
e 349 487
e 349 497
e 350 381
e 350 383
e 350 385
e 350 394
e 350 399
e 350 413
e 350 414
e 350 415
e 350 422
e 350 424
e 350 431
e 350 444
e 350 457
e 350 458
e 350 470
e 350 471
e 350 483
e 350 484
e 350 489
e 350 496
e 351 356
e 351 368
e 351 374
e 351 378
e 351 401
e 351 404
e 351 415
e 351 416
e 351 429
e 351 453
e 351 461
e 351 475
e 351 479
e 351 481
e 351 491
e 351 493
e 351 495
e 351 498
e 352 369
e 352 389
e 352 392
e 352 414
e 352 419
e 352 423
e 352 436
e 352 440
e 352 444
e 352 456
e 352 469
e 352 472
e 353 357
e 353 366
e 353 373
e 353 383
e 353 388
e 353 395
e 353 407
e 353 430
e 353 464
e 353 480
e 353 486
e 353 496
e 353 498
e 354 356
e 354 359
e 354 365
e 354 378
e 354 380
e 354 391
e 354 399
e 354 429
e 354 434
e 354 447
e 354 471
e 354 484
e 354 485
e 354 486
e 354 489
e 355 358
e 355 366
e 355 382
e 355 391
e 355 405
e 355 407
e 355 411
e 355 421
e 355 444
e 355 455
e 355 462
e 355 466
e 355 473
e 355 476
e 355 482
e 356 391
e 356 406
e 356 416
e 356 444
e 356 457
e 356 463
e 356 475
e 356 478
e 356 492
e 357 362
e 357 365
e 357 371
e 357 375
e 357 388
e 357 389
e 357 399
e 357 405
e 357 410
e 357 411
e 357 418
e 357 434
e 357 435
e 357 437
e 357 450
e 357 455
e 357 458
e 357 468
e 357 471
e 357 478
e 358 360
e 358 372
e 358 380
e 358 406
e 358 407
e 358 412
e 358 420
e 358 426
e 358 429
e 358 453
e 358 454
e 358 456
e 358 477
e 358 478
e 358 480
e 358 489
e 359 378
e 359 381
e 359 394
e 359 397
e 359 430
e 359 461
e 359 463
e 359 467
e 359 473
e 359 484
e 359 490
e 359 500
e 360 361
e 360 363
e 360 366
e 360 421
e 360 430
e 360 431
e 360 432
e 360 433
e 360 444
e 360 463
e 360 466
e 360 467
e 360 480
e 360 484
e 361 363
e 361 382
e 361 421
e 361 425
e 361 426
e 361 430
e 361 432
e 361 435
e 361 442
e 361 446
e 361 448
e 361 466
e 361 471
e 361 474
e 361 476
e 361 488
e 362 366
e 362 391
e 362 401
e 362 412
e 362 416
e 362 426
e 362 442
e 362 454
e 362 499
e 362 500
e 363 370
e 363 373
e 363 383
e 363 392
e 363 402
e 363 407
e 363 408
e 363 409
e 363 413
e 363 436
e 363 453
e 363 469
e 363 484
e 363 494
e 363 499
e 364 367
e 364 381
e 364 384
e 364 398
e 364 417
e 364 423
e 364 446
e 364 459
e 364 462
e 364 473
e 365 373
e 365 376
e 365 397
e 365 417
e 365 418
e 365 421
e 365 441
e 365 464
e 365 465
e 365 469
e 365 472
e 365 479
e 365 493
e 366 370
e 366 378
e 366 379
e 366 398
e 366 404
e 366 407
e 366 413
e 366 415
e 366 421
e 366 427
e 366 435
e 366 439
e 366 443
e 366 445
e 366 461
e 366 474
e 366 482
e 366 485
e 367 370
e 367 396
e 367 416
e 367 418
e 367 425
e 367 431
e 367 442
e 367 459
e 367 480
e 367 483
e 367 488
e 368 374
e 368 383
e 368 386
e 368 395
e 368 409
e 368 410
e 368 411
e 368 413
e 368 416
e 368 422
e 368 444
e 368 468
e 368 470
e 368 483
e 368 486
e 368 489
e 369 370
e 369 377
e 369 421
e 369 434
e 369 440
e 369 450
e 369 456
e 369 468
e 369 471
e 369 477
e 369 480
e 369 488
e 370 380
e 370 385
e 370 417
e 370 427
e 370 430
e 370 434
e 370 444
e 370 445
e 370 446
e 370 464
e 370 484
e 370 491
e 370 492
e 371 399
e 371 400
e 371 407
e 371 408
e 371 416
e 371 418
e 371 422
e 371 427
e 371 436
e 371 449
e 371 456
e 371 488
e 371 489
e 371 492
e 371 497
e 372 381
e 372 383
e 372 401
e 372 403
e 372 432
e 372 437
e 372 448
e 372 452
e 372 455
e 372 466
e 372 468
e 372 494
e 372 497
e 372 500
e 373 374
e 373 376
e 373 386
e 373 393
e 373 421
e 373 426
e 373 428
e 373 429
e 373 430
e 373 434
e 373 444
e 373 450
e 373 453
e 373 458
e 373 460
e 373 463
e 373 488
e 374 376
e 374 377
e 374 382
e 374 392
e 374 395
e 374 397
e 374 400
e 374 414
e 374 424
e 374 436
e 374 441
e 374 443
e 374 467
e 374 473
e 374 486
e 374 488
e 375 382
e 375 397
e 375 401
e 375 413
e 375 415
e 375 424
e 375 439
e 375 440
e 375 447
e 375 473
e 375 498
e 376 383
e 376 393
e 376 397
e 376 399
e 376 407
e 376 414
e 376 415
e 376 434
e 376 437
e 376 443
e 376 446
e 376 480
e 376 485
e 376 487
e 377 381
e 377 385
e 377 395
e 377 407
e 377 408
e 377 416
e 377 436
e 377 440
e 377 446
e 377 449
e 377 453
e 377 454
e 377 458
e 377 462
e 377 472
e 377 478
e 377 479
e 377 488
e 378 387
e 378 388
e 378 390
e 378 403
e 378 406
e 378 412
e 378 426
e 378 437
e 378 441
e 378 458
e 378 461
e 378 464
e 378 469
e 378 473
e 378 481
e 378 489
e 378 490
e 379 381
e 379 388
e 379 403
e 379 407
e 379 408
e 379 411
e 379 433
e 379 437
e 379 470
e 379 472
e 379 480
e 379 488
e 380 386
e 380 400
e 380 405
e 380 418
e 380 421
e 380 430
e 380 449
e 380 461
e 380 466
e 380 485
e 380 492
e 380 493
e 380 499
e 381 394
e 381 484
e 381 490
e 382 396
e 382 409
e 382 410
e 382 420
e 382 423
e 382 439
e 382 454
e 382 455
e 382 480
e 382 499
e 383 405
e 383 424
e 383 437
e 383 438
e 383 451
e 383 466
e 383 477
e 383 478
e 383 489
e 384 387
e 384 391
e 384 402
e 384 406
e 384 411
e 384 420
e 384 440
e 384 441
e 384 450
e 384 458
e 384 462
e 384 465
e 384 466
e 384 492
e 385 402
e 385 413
e 385 414
e 385 426
e 385 428
e 385 437
e 385 439
e 385 444
e 385 456
e 385 471
e 385 482
e 385 486
e 385 491
e 385 495
e 386 393
e 386 417
e 386 423
e 386 450
e 386 457
e 386 474
e 386 484
e 386 491
e 387 396
e 387 397
e 387 406
e 387 426
e 387 439
e 387 452
e 387 455
e 387 478
e 388 390
e 388 394
e 388 401
e 388 412
e 388 413
e 388 419
e 388 420
e 388 421
e 388 428
e 388 429
e 388 430
e 388 432
e 388 438
e 388 452
e 388 458
e 388 463
e 388 466
e 388 477
e 388 481
e 389 395
e 389 399
e 389 418
e 389 426
e 389 430
e 389 435
e 389 437
e 389 439
e 389 444
e 389 450
e 389 457
e 389 478
e 389 491
e 390 396
e 390 411
e 390 412
e 390 425
e 390 430
e 390 433
e 390 450
e 390 477
e 390 488
e 390 496
e 391 435
e 391 439
e 391 443
e 391 449
e 391 454
e 391 466
e 391 470
e 391 472
e 391 475
e 391 482
e 391 484
e 391 489
e 391 491
e 391 494
e 391 495
e 392 407
e 392 409
e 392 414
e 392 417
e 392 422
e 392 437
e 392 438
e 392 450
e 392 455
e 392 466
e 392 472
e 392 493
e 392 494
e 393 397
e 393 402
e 393 408
e 393 410
e 393 459
e 393 462
e 393 463
e 393 467
e 393 470
e 393 487
e 393 498
e 394 401
e 394 403
e 394 427
e 394 430
e 394 433
e 394 436
e 394 437
e 394 438
e 394 442
e 394 445
e 394 447
e 394 460
e 394 478
e 394 492
e 395 403
e 395 421
e 395 444
e 395 447
e 395 492
e 395 493
e 396 402
e 396 407
e 396 418
e 396 423
e 396 429
e 396 434
e 396 442
e 396 466
e 396 475
e 396 480
e 396 498
e 396 500
e 397 406
e 397 410
e 397 413
e 397 417
e 397 431
e 397 445
e 397 448
e 397 460
e 397 480
e 397 484
e 397 485
e 398 400
e 398 401
e 398 403
e 398 411
e 398 443
e 398 452
e 398 461
e 398 471
e 398 477
e 398 480
e 399 419
e 399 429
e 399 436
e 399 448
e 399 451
e 399 453
e 399 454
e 399 461
e 399 472
e 399 482
e 399 485
e 399 491
e 399 495
e 400 403
e 400 405
e 400 452
e 400 476
e 401 404
e 401 422
e 401 427
e 401 440
e 401 442
e 401 443
e 401 448
e 401 452
e 401 463
e 401 469
e 401 498
e 402 405
e 402 410
e 402 416
e 402 417
e 402 418
e 402 433
e 402 439
e 402 453
e 402 457
e 402 469
e 402 472
e 402 473
e 402 475
e 402 485
e 402 496
e 403 409
e 403 435
e 403 440
e 403 446
e 403 461
e 403 473
e 403 478
e 403 495
e 404 406
e 404 414
e 404 421
e 404 424
e 404 429
e 404 450
e 404 452
e 404 455
e 404 458
e 404 483
e 404 484
e 404 494
e 404 495
e 404 497
e 405 425
e 405 426
e 405 451
e 405 453
e 405 455
e 405 478
e 405 487
e 405 491
e 405 495
e 406 415
e 406 429
e 406 455
e 406 460
e 406 476
e 406 482
e 406 483
e 406 493
e 406 497
e 407 413
e 407 418
e 407 420
e 407 426
e 407 427
e 407 428
e 407 429
e 407 446
e 407 456
e 407 458
e 407 471
e 407 492
e 407 494
e 408 419
e 408 420
e 408 424
e 408 428
e 408 444
e 408 461
e 408 466
e 408 495
e 408 496
e 409 417
e 409 424
e 409 427
e 409 430
e 409 439
e 409 440
e 409 455
e 409 473
e 409 489
e 409 492
e 410 411
e 410 424
e 410 429
e 410 433
e 410 435
e 410 438
e 410 443
e 410 456
e 410 471
e 411 418
e 411 422
e 411 436
e 411 438
e 411 444
e 411 459
e 411 475
e 411 479
e 411 481
e 411 482
e 411 500
e 412 419
e 412 420
e 412 435
e 412 439
e 412 441
e 412 443
e 412 456
e 412 469
e 412 471
e 412 475
e 412 487
e 412 489
e 412 496
e 413 423
e 413 424
e 413 466
e 413 477
e 413 479
e 413 492
e 413 498
e 413 500
e 414 437
e 414 445
e 414 451
e 414 479
e 414 493
e 414 498
e 415 433
e 415 434
e 415 450
e 415 471
e 415 487
e 415 498
e 416 444
e 416 452
e 416 455
e 416 485
e 416 487
e 416 500
e 417 418
e 417 419
e 417 425
e 417 439
e 417 447
e 417 449
e 417 467
e 417 500
e 418 420
e 418 434
e 418 437
e 418 443
e 418 446
e 418 471
e 418 489
e 419 421
e 419 432
e 419 448
e 419 454
e 419 467
e 419 478
e 419 497
e 419 499
e 420 445
e 420 454
e 420 457
e 420 460
e 420 474
e 420 479
e 420 487
e 421 426
e 421 435
e 421 460
e 421 468
e 421 474
e 421 483
e 421 495
e 421 497
e 421 498
e 422 424
e 422 425
e 422 438
e 422 447
e 422 454
e 422 458
e 422 467
e 422 487
e 422 492
e 422 500
e 423 432
e 423 449
e 423 458
e 423 476
e 423 493
e 424 439
e 424 441
e 424 455
e 424 463
e 424 472
e 424 483
e 424 487
e 424 488
e 424 497
e 425 434
e 425 449
e 425 463
e 425 464
e 425 470
e 425 473
e 425 479
e 425 485
e 425 492
e 426 436
e 426 448
e 426 455
e 426 460
e 426 473
e 426 484
e 426 496
e 427 428
e 427 440
e 427 443
e 427 445
e 427 449
e 427 455
e 427 464
e 427 478
e 427 482
e 427 488
e 427 490
e 427 491
e 427 493
e 427 496
e 428 434
e 428 445
e 428 457
e 428 466
e 429 434
e 429 441
e 429 443
e 429 454
e 429 459
e 429 470
e 429 479
e 429 486
e 429 492
e 430 438
e 430 447
e 430 470
e 430 483
e 431 432
e 431 456
e 431 460
e 431 465
e 431 485
e 431 492
e 432 476
e 432 494
e 432 500
e 433 437
e 433 438
e 433 463
e 433 469
e 434 447
e 434 457
e 434 459
e 434 460
e 434 480
e 434 485
e 435 440
e 435 456
e 435 485
e 435 488
e 435 489
e 436 437
e 436 451
e 436 458
e 436 463
e 436 466
e 436 477
e 436 483
e 436 492
e 436 493
e 436 497
e 436 498
e 436 499
e 437 441
e 437 442
e 437 447
e 437 453
e 437 456
e 437 481
e 437 484
e 437 496
e 437 497
e 438 440
e 438 444
e 438 455
e 438 468
e 438 481
e 438 482
e 438 489
e 439 451
e 439 456
e 439 473
e 439 475
e 439 480
e 439 483
e 439 492
e 439 496
e 440 451
e 440 463
e 440 470
e 440 479
e 440 485
e 440 487
e 441 457
e 441 467
e 442 468
e 442 471
e 442 485
e 442 496
e 443 456
e 443 459
e 443 460
e 443 465
e 443 468
e 443 473
e 443 480
e 443 486
e 443 488
e 443 489
e 444 445
e 444 468
e 444 487
e 445 450
e 445 462
e 445 469
e 445 480
e 445 493
e 445 494
e 445 500
e 447 460
e 447 461
e 447 481
e 447 485
e 447 491
e 447 497
e 447 500
e 448 469
e 448 477
e 448 484
e 448 488
e 448 493
e 448 498
e 449 450
e 449 455
e 449 462
e 449 464
e 449 469
e 449 471
e 450 452
e 450 461
e 450 468
e 450 474
e 450 489
e 451 456
e 451 471
e 451 485
e 452 459
e 452 463
e 452 488
e 452 491
e 452 493
e 452 500
e 453 463
e 453 466
e 453 467
e 453 468
e 453 481
e 453 491
e 453 493
e 453 497
e 454 456
e 454 458
e 454 469
e 454 470
e 454 472
e 454 475
e 454 483
e 454 486
e 454 489
e 455 457
e 455 460
e 455 464
e 455 465
e 455 467
e 455 479
e 456 467
e 456 477
e 456 481
e 457 464
e 457 471
e 457 474
e 457 482
e 457 493
e 457 494
e 458 460
e 458 497
e 459 487
e 460 468
e 460 472
e 460 486
e 461 470
e 461 473
e 461 485
e 461 491
e 461 494
e 462 465
e 462 467
e 462 469
e 462 478
e 462 499
e 463 466
e 463 478
e 463 486
e 463 495
e 464 473
e 464 477
e 465 490
e 465 496
e 465 497
e 466 496
e 468 483
e 468 486
e 468 488
e 468 500
e 469 474
e 469 482
e 469 486
e 469 495
e 470 471
e 470 474
e 470 486
e 471 473
e 471 480
e 471 485
e 471 490
e 472 482
e 472 484
e 472 493
e 473 478
e 473 496
e 474 491
e 475 484
e 475 486
e 475 489
e 475 492
e 476 481
e 476 482
e 476 490
e 476 499
e 477 485
e 478 482
e 478 490
e 479 481
e 479 485
e 481 488
e 481 496
e 482 487
e 482 490
e 482 492
e 482 497
e 482 498
e 483 486
e 483 487
e 483 497
e 484 498
e 485 486
e 485 494
e 486 494
e 487 488
e 489 497
e 489 499
e 491 492
e 495 497
