c Converted from gc_50_1
c Source format: '<vertices> <edges>' header followed by integer edge pairs
p edge 50 133
e 1 6
e 1 16
e 1 33
e 1 45
e 1 48
e 2 5
e 2 23
e 2 48
e 3 6
e 3 8
e 3 15
e 3 23
e 3 31
e 3 34
e 3 43
e 4 8
e 4 12
e 4 13
e 4 26
e 4 48
e 4 50
e 5 14
e 5 25
e 5 46
e 6 15
e 6 42
e 6 45
e 7 9
e 7 34
e 7 50
e 8 9
e 8 19
e 8 31
e 8 42
e 8 44
e 8 48
e 9 11
e 9 27
e 9 33
e 9 37
e 9 40
e 9 48
e 10 25
e 10 49
e 11 19
e 11 25
e 11 33
e 11 41
e 11 42
e 11 48
e 12 14
e 12 20
e 12 28
e 12 37
e 12 49
e 12 50
e 13 24
e 13 25
e 13 42
e 14 34
e 15 24
e 15 27
e 15 46
e 16 22
e 16 26
e 16 30
e 16 49
e 17 19
e 17 20
e 17 25
e 17 28
e 17 31
e 17 40
e 17 47
e 18 20
e 18 21
e 18 24
e 18 45
e 18 50
e 19 23
e 19 31
e 19 38
e 20 27
e 20 37
e 20 39
e 20 42
e 20 47
e 21 31
e 21 41
e 22 36
e 22 41
e 22 49
e 23 35
e 23 36
e 23 38
e 24 40
e 26 38
e 26 39
e 26 47
e 26 50
e 27 28
e 27 44
e 27 48
e 28 43
e 28 44
e 28 47
e 28 48
e 28 50
e 29 44
e 29 45
e 30 41
e 30 46
e 31 39
e 31 41
e 31 48
e 32 33
e 32 36
e 33 37
e 33 45
e 33 49
e 34 35
e 34 41
e 36 40
e 38 49
e 39 49
e 40 47
e 41 44
e 42 50
e 45 46
e 45 48
e 46 50
e 47 48
e 48 50
