c Converted from gc_70_3
c Source format: '<vertices> <edges>' header followed by integer edge pairs
p edge 70 721
e 1 9
e 1 10
e 1 11
e 1 16
e 1 20
e 1 22
e 1 23
e 1 25
e 1 26
e 1 29
e 1 31
e 1 34
e 1 37
e 1 45
e 1 48
e 1 49
e 1 50
e 1 52
e 1 54
e 1 55
e 1 62
e 1 64
e 1 65
e 1 66
e 1 67
e 2 4
e 2 7
e 2 11
e 2 18
e 2 19
e 2 20
e 2 22
e 2 23
e 2 30
e 2 32
e 2 35
e 2 37
e 2 38
e 2 40
e 2 41
e 2 42
e 2 48
e 2 49
e 2 52
e 2 56
e 2 65
e 2 67
e 2 69
e 3 5
e 3 7
e 3 9
e 3 20
e 3 27
e 3 28
e 3 29
e 3 36
e 3 39
e 3 40
e 3 41
e 3 43
e 3 46
e 3 49
e 3 50
e 3 54
e 3 60
e 3 61
e 3 64
e 3 69
e 4 10
e 4 13
e 4 14
e 4 15
e 4 20
e 4 21
e 4 23
e 4 24
e 4 25
e 4 26
e 4 34
e 4 37
e 4 40
e 4 41
e 4 45
e 4 49
e 4 50
e 4 52
e 4 53
e 4 54
e 4 57
e 4 63
e 4 66
e 5 6
e 5 7
e 5 20
e 5 22
e 5 23
e 5 24
e 5 25
e 5 28
e 5 30
e 5 41
e 5 42
e 5 43
e 5 44
e 5 45
e 5 47
e 5 48
e 5 52
e 5 54
e 5 57
e 5 64
e 5 65
e 5 66
e 5 67
e 5 70
e 6 8
e 6 27
e 6 28
e 6 31
e 6 34
e 6 42
e 6 43
e 6 47
e 6 55
e 6 58
e 6 59
e 6 64
e 6 65
e 6 68
e 6 69
e 7 12
e 7 17
e 7 19
e 7 21
e 7 27
e 7 31
e 7 35
e 7 43
e 7 47
e 7 51
e 7 60
e 7 63
e 8 11
e 8 18
e 8 20
e 8 27
e 8 28
e 8 35
e 8 39
e 8 42
e 8 43
e 8 45
e 8 46
e 8 48
e 8 50
e 8 51
e 8 68
e 9 15
e 9 24
e 9 28
e 9 33
e 9 34
e 9 38
e 9 43
e 9 44
e 9 47
e 9 51
e 9 56
e 9 57
e 9 63
e 9 68
e 9 70
e 10 11
e 10 12
e 10 16
e 10 17
e 10 24
e 10 26
e 10 30
e 10 35
e 10 43
e 10 51
e 10 54
e 10 55
e 10 56
e 10 57
e 10 60
e 10 62
e 10 65
e 10 70
e 11 13
e 11 19
e 11 20
e 11 22
e 11 35
e 11 39
e 11 40
e 11 41
e 11 43
e 11 44
e 11 45
e 11 47
e 11 53
e 11 55
e 11 56
e 11 57
e 11 59
e 11 65
e 11 67
e 12 14
e 12 15
e 12 21
e 12 24
e 12 33
e 12 35
e 12 36
e 12 38
e 12 39
e 12 43
e 12 46
e 12 47
e 12 51
e 12 53
e 12 54
e 12 55
e 12 57
e 12 58
e 12 59
e 12 60
e 12 61
e 12 65
e 12 67
e 13 16
e 13 20
e 13 23
e 13 25
e 13 37
e 13 41
e 13 53
e 13 55
e 13 56
e 13 57
e 13 60
e 13 61
e 13 66
e 13 68
e 13 70
e 14 15
e 14 17
e 14 18
e 14 20
e 14 22
e 14 34
e 14 39
e 14 42
e 14 47
e 14 53
e 15 16
e 15 19
e 15 20
e 15 26
e 15 31
e 15 40
e 15 41
e 15 47
e 15 51
e 15 53
e 15 55
e 15 59
e 15 60
e 15 61
e 15 62
e 15 66
e 15 69
e 15 70
e 16 20
e 16 21
e 16 22
e 16 24
e 16 26
e 16 33
e 16 34
e 16 35
e 16 38
e 16 39
e 16 43
e 16 44
e 16 45
e 16 47
e 16 49
e 16 51
e 16 53
e 16 55
e 16 59
e 16 64
e 16 65
e 17 19
e 17 20
e 17 21
e 17 27
e 17 30
e 17 43
e 17 44
e 17 47
e 17 52
e 17 63
e 17 68
e 18 20
e 18 25
e 18 27
e 18 28
e 18 31
e 18 33
e 18 36
e 18 39
e 18 45
e 18 48
e 18 50
e 18 51
e 18 52
e 18 58
e 18 59
e 18 63
e 18 65
e 18 69
e 19 21
e 19 24
e 19 27
e 19 28
e 19 31
e 19 38
e 19 42
e 19 54
e 19 58
e 19 64
e 19 65
e 19 68
e 19 69
e 20 21
e 20 27
e 20 28
e 20 30
e 20 33
e 20 34
e 20 45
e 20 46
e 20 49
e 20 50
e 20 51
e 20 52
e 20 58
e 20 59
e 20 61
e 20 63
e 20 66
e 20 68
e 20 69
e 21 24
e 21 25
e 21 27
e 21 29
e 21 31
e 21 39
e 21 44
e 21 45
e 21 57
e 21 59
e 21 63
e 21 68
e 21 69
e 21 70
e 22 40
e 22 45
e 22 47
e 22 53
e 22 54
e 22 55
e 22 56
e 22 57
e 22 60
e 22 63
e 22 64
e 22 70
e 23 27
e 23 28
e 23 29
e 23 32
e 23 37
e 23 39
e 23 42
e 23 43
e 23 46
e 23 55
e 23 57
e 23 60
e 23 61
e 23 62
e 23 64
e 23 66
e 23 70
e 24 30
e 24 31
e 24 35
e 24 37
e 24 39
e 24 47
e 24 64
e 24 70
e 25 27
e 25 33
e 25 48
e 25 49
e 25 50
e 25 52
e 25 59
e 25 62
e 25 68
e 26 30
e 26 37
e 26 41
e 26 42
e 26 44
e 26 45
e 26 48
e 26 52
e 26 57
e 26 67
e 26 70
e 27 28
e 27 29
e 27 35
e 27 37
e 27 45
e 27 52
e 27 55
e 27 56
e 27 58
e 27 59
e 27 62
e 27 64
e 27 69
e 28 31
e 28 33
e 28 35
e 28 41
e 28 43
e 28 53
e 28 55
e 28 57
e 28 62
e 29 31
e 29 39
e 29 42
e 29 43
e 29 44
e 29 46
e 29 51
e 29 52
e 29 54
e 29 55
e 29 56
e 29 57
e 29 59
e 29 61
e 29 64
e 29 65
e 29 69
e 29 70
e 30 32
e 30 33
e 30 36
e 30 43
e 30 47
e 30 50
e 30 56
e 30 57
e 30 59
e 30 64
e 30 65
e 31 32
e 31 35
e 31 38
e 31 40
e 31 42
e 31 44
e 31 45
e 31 53
e 31 54
e 31 55
e 31 59
e 31 63
e 31 66
e 31 69
e 32 34
e 32 42
e 32 44
e 32 45
e 32 48
e 32 49
e 32 58
e 32 59
e 32 62
e 32 67
e 32 69
e 33 38
e 33 39
e 33 40
e 33 45
e 33 49
e 33 51
e 33 66
e 34 35
e 34 38
e 34 43
e 34 44
e 34 46
e 34 48
e 34 50
e 34 56
e 34 59
e 34 60
e 34 63
e 34 64
e 34 67
e 35 36
e 35 41
e 35 42
e 35 51
e 35 56
e 35 58
e 35 60
e 35 62
e 35 64
e 35 68
e 35 70
e 36 39
e 36 40
e 36 41
e 36 45
e 36 48
e 36 58
e 36 61
e 36 63
e 36 64
e 36 69
e 37 39
e 37 40
e 37 44
e 37 46
e 37 47
e 37 49
e 37 50
e 37 53
e 37 55
e 37 60
e 37 65
e 37 66
e 37 67
e 37 70
e 38 39
e 38 45
e 38 51
e 38 58
e 38 61
e 38 66
e 38 69
e 38 70
e 39 41
e 39 43
e 39 44
e 39 47
e 39 55
e 39 63
e 39 65
e 40 42
e 40 43
e 40 45
e 40 48
e 40 50
e 40 54
e 40 56
e 40 59
e 40 61
e 40 65
e 40 70
e 41 42
e 41 48
e 41 52
e 41 53
e 41 57
e 41 58
e 41 59
e 41 62
e 41 68
e 42 51
e 42 52
e 42 55
e 42 58
e 42 63
e 42 64
e 42 70
e 43 45
e 43 46
e 43 47
e 43 49
e 43 50
e 43 55
e 43 57
e 43 61
e 43 65
e 43 67
e 43 69
e 44 47
e 44 52
e 44 53
e 44 54
e 44 57
e 44 58
e 44 61
e 44 65
e 44 66
e 44 70
e 45 48
e 45 49
e 45 51
e 45 54
e 45 55
e 45 58
e 45 60
e 45 67
e 45 69
e 46 48
e 46 51
e 46 58
e 46 62
e 46 65
e 46 67
e 46 68
e 46 70
e 47 48
e 47 51
e 47 53
e 47 57
e 47 58
e 47 64
e 47 67
e 47 69
e 48 57
e 48 64
e 48 65
e 48 66
e 48 70
e 49 52
e 49 53
e 49 58
e 49 62
e 49 66
e 49 67
e 49 68
e 50 53
e 50 62
e 50 64
e 50 65
e 50 67
e 51 61
e 51 63
e 51 65
e 51 69
e 52 53
e 52 54
e 52 57
e 52 59
e 52 61
e 52 62
e 52 64
e 53 56
e 53 65
e 53 66
e 53 67
e 53 70
e 54 58
e 54 61
e 54 66
e 54 67
e 54 69
e 55 56
e 55 57
e 55 58
e 55 60
e 55 64
e 55 68
e 56 58
e 56 61
e 56 65
e 56 66
e 56 69
e 57 61
e 57 62
e 57 64
e 57 66
e 57 70
e 58 68
e 58 69
e 58 70
e 59 60
e 59 65
e 59 68
e 60 63
e 60 68
e 61 63
e 62 63
e 62 64
e 62 65
e 62 67
e 62 70
e 63 66
e 64 70
e 65 66
e 65 68
e 66 69
e 68 69
