c Converted from gc_70_1
c Source format: '<vertices> <edges>' header followed by integer edge pairs
p edge 70 224
e 1 7
e 1 10
e 1 21
e 1 35
e 1 40
e 1 41
e 1 42
e 1 48
e 1 50
e 1 63
e 2 3
e 2 5
e 2 10
e 2 32
e 2 51
e 2 53
e 2 66
e 3 9
e 3 11
e 3 14
e 3 25
e 3 30
e 3 36
e 3 39
e 3 46
e 3 54
e 3 58
e 3 62
e 3 64
e 3 70
e 4 12
e 4 31
e 4 33
e 4 47
e 4 50
e 4 53
e 4 57
e 4 58
e 4 60
e 4 67
e 5 43
e 5 46
e 5 55
e 5 64
e 5 65
e 5 67
e 6 44
e 6 67
e 7 20
e 7 25
e 7 36
e 7 37
e 7 52
e 7 55
e 7 63
e 8 17
e 8 18
e 8 29
e 8 34
e 8 37
e 8 50
e 8 52
e 9 19
e 9 27
e 9 40
e 9 42
e 9 48
e 9 65
e 10 25
e 10 44
e 10 50
e 10 60
e 10 62
e 10 63
e 10 66
e 10 69
e 11 28
e 11 31
e 11 32
e 11 48
e 11 54
e 12 13
e 12 17
e 12 38
e 12 48
e 12 63
e 12 66
e 13 34
e 13 58
e 13 60
e 14 18
e 14 20
e 14 43
e 14 52
e 14 53
e 14 58
e 14 64
e 14 69
e 15 23
e 15 44
e 15 56
e 16 20
e 16 27
e 16 35
e 16 49
e 16 51
e 16 68
e 17 52
e 18 20
e 18 22
e 18 23
e 18 30
e 18 34
e 18 51
e 18 68
e 18 70
e 19 24
e 19 55
e 20 24
e 20 34
e 20 41
e 20 49
e 20 52
e 20 62
e 20 63
e 20 69
e 21 34
e 21 45
e 22 23
e 22 27
e 22 29
e 22 31
e 22 36
e 23 28
e 23 60
e 23 67
e 24 28
e 24 36
e 24 55
e 24 56
e 25 28
e 25 36
e 25 37
e 26 32
e 26 66
e 26 67
e 27 42
e 28 48
e 28 63
e 29 41
e 29 42
e 29 62
e 29 64
e 30 43
e 30 55
e 30 57
e 31 34
e 31 37
e 31 42
e 31 48
e 31 57
e 31 61
e 32 58
e 33 34
e 33 38
e 34 43
e 34 47
e 35 51
e 35 53
e 35 60
e 36 37
e 36 58
e 37 39
e 37 50
e 37 52
e 38 39
e 38 49
e 39 44
e 41 42
e 41 43
e 41 49
e 41 50
e 41 55
e 41 56
e 41 69
e 42 46
e 42 47
e 42 49
e 42 61
e 42 65
e 43 49
e 43 53
e 43 57
e 44 52
e 44 53
e 45 50
e 45 54
e 45 67
e 46 53
e 46 58
e 47 52
e 47 54
e 47 55
e 47 57
e 48 51
e 49 52
e 49 57
e 49 62
e 50 68
e 51 58
e 51 70
e 52 64
e 53 59
e 53 61
e 54 63
e 55 63
e 55 67
e 55 70
e 57 60
e 57 62
e 57 64
e 60 63
e 62 64
e 67 68
